! K9DP QRP BCI filter, live capture
! 0.3-20 MHz, 3 segments x 401, 4 averages
# Hz S RI R 50
 300000 0.998586192 -0.056655032 -0.00012342775 0.000288146 0 0 0 0
 316417 0.998560768 -0.06002938 -2.744675e-05 0.0002771805 0 0 0 0
 332833 0.998357712 -0.063357624 2.240125e-05 0.00034466575 0 0 0 0
 349250 0.998120928 -0.066700508 -6.96175e-06 0.00038957525 0 0 0 0
 365667 0.997885856 -0.070071044 5.836575e-05 0.0004505875 0 0 0 0
 382083 0.997635024 -0.073488084 3.098525e-05 0.00053281725 0 0 0 0
 398500 0.99741544 -0.07688628 6.635275e-05 0.000565787 0 0 0 0
 414917 0.997122832 -0.08025481 2.775975e-05 0.00063121225 0 0 0 0
 431333 0.996877168 -0.083705432 0.00011005375 0.00069413875 0 0 0 0
 447750 0.996494512 -0.086958936 9.52015e-05 0.000796809 0 0 0 0
 464167 0.996231168 -0.090527678 0.00010939525 0.00082350475 0 0 0 0
 480583 0.99586448 -0.093793868 0.00013586675 0.00090372175 0 0 0 0
 497000 0.995526944 -0.097239244 0.00016511125 0.0010366005 0 0 0 0
 513417 0.995257696 -0.100687884 0.00017744075 0.00113392575 0 0 0 0
 529833 0.994831728 -0.104033444 0.000218761 0.00122575225 0 0 0 0
 546250 0.99455056 -0.107486142 0.00024973475 0.001314853 0 0 0 0
 562667 0.994090336 -0.110881736 0.00028094975 0.00146445675 0 0 0 0
 579083 0.993716496 -0.114318706 0.00033295325 0.0015698315 0 0 0 0
 595500 0.993267248 -0.117730076 0.00033967275 0.00172672625 0 0 0 0
 611917 0.992793328 -0.121185088 0.000372478 0.001850858 0 0 0 0
 628333 0.992450176 -0.124593414 0.000462241 0.00201540025 0 0 0 0
 644750 0.992001696 -0.128075854 0.00050422075 0.002167916 0 0 0 0
 661167 0.991632864 -0.131494476 0.00053015 0.00234762575 0 0 0 0
 677583 0.991069776 -0.13490054 0.00060806175 0.00251006475 0 0 0 0
 694000 0.990638176 -0.138400492 0.000704526 0.00269404525 0 0 0 0
 710417 0.990057136 -0.141877256 0.0007465075 0.00286076675 0 0 0 0
 726833 0.989595968 -0.145303192 0.0008205825 0.003051837 0 0 0 0
 743250 0.989025904 -0.148655736 0.00093799 0.00326349925 0 0 0 0
 759667 0.98858392 -0.152161576 0.001016598 0.0034868135 0 0 0 0
 776083 0.988032432 -0.155577516 0.001087763 0.00373555125 0 0 0 0
 792500 0.987432928 -0.159106312 0.00122118775 0.003934458 0 0 0 0
 808917 0.986872368 -0.162603112 0.00127897175 0.00418635 0 0 0 0
 825333 0.986255632 -0.166070808 0.00143402375 0.00443598725 0 0 0 0
 841750 0.985694752 -0.169499884 0.00153098025 0.0046930845 0 0 0 0
 858167 0.98503104 -0.173020996 0.0016525735 0.00496866775 0 0 0 0
 874583 0.984439616 -0.17650128 0.001796249 0.00526170375 0 0 0 0
 891000 0.983690016 -0.179945728 0.00190257425 0.00552160825 0 0 0 0
 907417 0.983089936 -0.183446176 0.00210264775 0.0058118195 0 0 0 0
 923833 0.982437248 -0.18693584 0.0022504855 0.00616261975 0 0 0 0
 940250 0.981799712 -0.190466316 0.0024279915 0.006458631 0 0 0 0
 956667 0.981095168 -0.193953332 0.002590743 0.006795937 0 0 0 0
 973083 0.980383088 -0.197465564 0.00278633425 0.0071408445 0 0 0 0
 989500 0.979642384 -0.200899204 0.00298925025 0.0074961635 0 0 0 0
 1005917 0.978871536 -0.204422684 0.0031932485 0.00786068325 0 0 0 0
 1022333 0.978106656 -0.208000036 0.00340266075 0.00822635225 0 0 0 0
 1038750 0.977336544 -0.211522332 0.00363613875 0.008603144 0 0 0 0
 1055167 0.976571312 -0.215065624 0.00387694375 0.0090468565 0 0 0 0
 1071583 0.975781024 -0.21857842 0.00412953325 0.00942504025 0 0 0 0
 1088000 0.97496008 -0.222180748 0.00440842225 0.00985549075 0 0 0 0
 1104417 0.974060688 -0.225628048 0.0046796865 0.0103015397 0 0 0 0
 1120833 0.97325408 -0.229175628 0.00499905 0.0107253707 0 0 0 0
 1137250 0.972444064 -0.232751572 0.0053125225 0.0111624417 0 0 0 0
 1153667 0.971491984 -0.236307984 0.00562564525 0.0116352785 0 0 0 0
 1170083 0.970571264 -0.239911752 0.005966171 0.0121261982 0 0 0 0
 1186500 0.969622496 -0.243534168 0.00629147725 0.0126317058 0 0 0 0
 1202917 0.968787264 -0.247036652 0.0066729265 0.0131063683 0 0 0 0
 1219333 0.96778104 -0.250595416 0.0070584245 0.0136281633 0 0 0 0
 1235750 0.966943472 -0.25423944 0.00749319625 0.0141735033 0 0 0 0
 1252167 0.965845856 -0.257772996 0.0078846295 0.0147121375 0 0 0 0
 1268583 0.96481432 -0.261412252 0.00831931275 0.0152741663 0 0 0 0
 1285000 0.963791248 -0.264911392 0.00874815 0.015775551 0 0 0 0
 1301417 0.962777072 -0.26863144 0.0092657975 0.0163607552 0 0 0 0
 1317833 0.961764432 -0.272181208 0.009772014 0.016939827 0 0 0 0
 1334250 0.960615376 -0.275837584 0.0102928992 0.0175414375 0 0 0 0
 1350667 0.959622496 -0.279399672 0.0108425887 0.018172995 0 0 0 0
 1367083 0.95844216 -0.283120168 0.0113562635 0.018764386 0 0 0 0
 1383500 0.9573432 -0.286786992 0.011987381 0.0194111045 0 0 0 0
 1399917 0.956154784 -0.290388376 0.0125891768 0.020031667 0 0 0 0
 1416333 0.955031744 -0.294107816 0.0131908638 0.0207059335 0 0 0 0
 1432750 0.95378992 -0.29768556 0.0138579545 0.0213401605 0 0 0 0
 1449167 0.952636032 -0.301454216 0.014530619 0.0220305885 0 0 0 0
 1465583 0.951417008 -0.30503744 0.0152200117 0.02269943 0 0 0 0
 1482000 0.950166704 -0.308757736 0.0159565415 0.0233769815 0 0 0 0
 1498417 0.948855264 -0.312456264 0.0166930763 0.0241098605 0 0 0 0
 1514833 0.947490976 -0.316157944 0.017513385 0.0247989985 0 0 0 0
 1531250 0.946196976 -0.319750344 0.018322091 0.0255645835 0 0 0 0
 1547667 0.944755376 -0.323548264 0.0191419335 0.026270881 0 0 0 0
 1564083 0.943498368 -0.327219168 0.01999534 0.0269890675 0 0 0 0
 1580500 0.942020576 -0.330955536 0.0209146645 0.027739253 0 0 0 0
 1596917 0.940662352 -0.33471548 0.0218388165 0.0285034115 0 0 0 0
 1613333 0.939189136 -0.338409864 0.0228047575 0.0292892645 0 0 0 0
 1629750 0.937743488 -0.34222272 0.0238059185 0.0300680645 0 0 0 0
 1646167 0.936194272 -0.345839792 0.0248146775 0.0308406665 0 0 0 0
 1662583 0.934677712 -0.349758464 0.0258955225 0.03162975 0 0 0 0
 1679000 0.93317864 -0.353426288 0.02698022 0.0324323665 0 0 0 0
 1695417 0.931572752 -0.357302424 0.028115713 0.0331997745 0 0 0 0
 1711833 0.929967552 -0.360983552 0.029287644 0.03404586 0 0 0 0
 1728250 0.928280656 -0.364775216 0.0304666685 0.034851615 0 0 0 0
 1744667 0.926701856 -0.368519928 0.031734174 0.035661243 0 0 0 0
 1761083 0.92493592 -0.372393496 0.0330077965 0.036457534 0 0 0 0
 1777500 0.92332816 -0.376156064 0.034345959 0.037293759 0 0 0 0
 1793917 0.9215396 -0.379972032 0.035703253 0.038114716 0 0 0 0
 1810333 0.919735696 -0.383865256 0.037107429 0.038973029 0 0 0 0
 1826750 0.91792056 -0.38761476 0.038546159 0.039780344 0 0 0 0
 1843167 0.916068016 -0.391550528 0.040046151 0.040624766 0 0 0 0
 1859583 0.914172432 -0.39530984 0.041576231 0.041472329 0 0 0 0
 1876000 0.912283952 -0.399154888 0.04315874 0.042258751 0 0 0 0
 1892417 0.910339504 -0.403005472 0.044793005 0.043141313 0 0 0 0
 1908833 0.908315408 -0.406855504 0.046442192 0.043921943 0 0 0 0
 1925250 0.906348576 -0.410689624 0.048147902 0.044753298 0 0 0 0
 1941667 0.904217584 -0.414493976 0.049925861 0.045579467 0 0 0 0
 1958083 0.902176368 -0.418434888 0.051747678 0.04639028 0 0 0 0
 1974500 0.90005536 -0.422295992 0.053603244 0.047174713 0 0 0 0
 1990916 0.897887488 -0.426189912 0.055548253 0.047981685 0 0 0 0
 2007333 0.89571416 -0.429997808 0.057491045 0.048765987 0 0 0 0
 2023750 0.893418144 -0.434013096 0.059517028 0.049546351 0 0 0 0
 2040166 0.891146 -0.43786108 0.061598971 0.050338432 0 0 0 0
 2056583 0.888844 -0.441758352 0.063738793 0.051043571 0 0 0 0
 2073000 0.8865052 -0.44556924 0.065937125 0.051843317 0 0 0 0
 2089416 0.884019104 -0.449470152 0.068156998 0.05253388 0 0 0 0
 2105833 0.881649664 -0.453329824 0.070443888 0.053262206 0 0 0 0
 2122250 0.87907776 -0.457263744 0.072775882 0.053934015 0 0 0 0
 2138666 0.876568704 -0.461099744 0.075199952 0.054608301 0 0 0 0
 2155083 0.873932752 -0.464989536 0.077690674 0.055215501 0 0 0 0
 2171500 0.871299696 -0.468891896 0.080193306 0.055878996 0 0 0 0
 2187916 0.868674768 -0.47267972 0.082765428 0.056475729 0 0 0 0
 2204333 0.865903664 -0.476627168 0.085436388 0.05704215 0 0 0 0
 2220750 0.863167776 -0.480435496 0.088125718 0.057613184 0 0 0 0
 2237166 0.860320096 -0.4843814 0.090904856 0.058101056 0 0 0 0
 2253583 0.857434928 -0.488233936 0.093747644 0.058568463 0 0 0 0
 2270000 0.854470848 -0.49210792 0.096636176 0.059028924 0 0 0 0
 2286416 0.851545568 -0.495938424 0.09959508 0.059448193 0 0 0 0
 2302833 0.84846248 -0.49975756 0.102597034 0.059819526 0 0 0 0
 2319250 0.845373184 -0.503572072 0.105686574 0.06012931 0 0 0 0
 2335666 0.842148176 -0.507372752 0.108853308 0.060408928 0 0 0 0
 2352083 0.839050832 -0.511236016 0.112045308 0.060681643 0 0 0 0
 2368500 0.835747376 -0.514990352 0.115319268 0.060862446 0 0 0 0
 2384916 0.83242896 -0.518753704 0.118659594 0.061026081 0 0 0 0
 2401333 0.829089024 -0.522527224 0.122037904 0.061102139 0 0 0 0
 2417750 0.82559584 -0.526292968 0.125529046 0.061157813 0 0 0 0
 2434166 0.822157168 -0.529983384 0.129054178 0.061138796 0 0 0 0
 2450583 0.818653056 -0.533635632 0.132641278 0.061032005 0 0 0 0
 2467000 0.815116768 -0.537335792 0.136290384 0.06088534 0 0 0 0
 2483416 0.811391696 -0.54097176 0.140010568 0.060687909 0 0 0 0
 2499833 0.80765576 -0.544674 0.143799208 0.060400188 0 0 0 0
 2516250 0.803892384 -0.548225664 0.147621836 0.060096963 0 0 0 0
 2532666 0.800089216 -0.551848496 0.151537412 0.059647739 0 0 0 0
 2549083 0.796160368 -0.555275744 0.155497276 0.059190486 0 0 0 0
 2565500 0.792165008 -0.55890568 0.159526772 0.058569789 0 0 0 0
 2581916 0.788170304 -0.562334592 0.163564512 0.057922983 0 0 0 0
 2598333 0.784079568 -0.565740032 0.16773518 0.057217732 0 0 0 0
 2614750 0.779910576 -0.569205712 0.171903512 0.05639504 0 0 0 0
 2631166 0.77567224 -0.572619904 0.1761357 0.055468585 0 0 0 0
 2647583 0.771480432 -0.575877328 0.180432548 0.054441532 0 0 0 0
 2664000 0.767049248 -0.579135392 0.184753648 0.05331532 0 0 0 0
 2680416 0.762678016 -0.582430496 0.189150584 0.052139586 0 0 0 0
 2696833 0.758211456 -0.585564784 0.193617236 0.050780513 0 0 0 0
 2713250 0.753757136 -0.588706176 0.198056732 0.049411492 0 0 0 0
 2729666 0.749112224 -0.59186176 0.202606948 0.047871682 0 0 0 0
 2746083 0.744516464 -0.594888448 0.207139524 0.046226757 0 0 0 0
 2762500 0.739829968 -0.597787536 0.211745636 0.044494713 0 0 0 0
 2778916 0.735062768 -0.600819168 0.216392336 0.042605984 0 0 0 0
 2795333 0.730257264 -0.603640064 0.221021456 0.040644689 0 0 0 0
 2811750 0.725354032 -0.60646536 0.22572438 0.038477438 0 0 0 0
 2828166 0.720502656 -0.60914712 0.230417776 0.036343635 0 0 0 0
 2844583 0.715457536 -0.611800592 0.235187724 0.033955762 0 0 0 0
 2861000 0.710418704 -0.614382048 0.239920908 0.031475572 0 0 0 0
 2877416 0.705321104 -0.616910704 0.244693972 0.028817186 0 0 0 0
 2893833 0.7002528 -0.619444032 0.2494633 0.026060856 0 0 0 0
 2910250 0.695098992 -0.62178816 0.2542175 0.023210036 0 0 0 0
 2926666 0.6897804 -0.624047936 0.25897924 0.0201637335 0 0 0 0
 2943083 0.684510704 -0.626240336 0.263752692 0.0170017775 0 0 0 0
 2959500 0.67918376 -0.628456224 0.26854476 0.01367094 0 0 0 0
 2975916 0.673816608 -0.630500192 0.273292184 0.0102113425 0 0 0 0
 2992333 0.668424896 -0.632485648 0.278025416 0.0066061195 0 0 0 0
 3008750 0.663018752 -0.634357792 0.282747328 0.00291324325 0 0 0 0
 3025166 0.65753816 -0.636050384 0.287452168 -0.00101302675 0 0 0 0
 3041583 0.652097216 -0.637786592 0.292091648 -0.005023943 0 0 0 0
 3058000 0.646512176 -0.639355104 0.296721072 -0.00919709125 0 0 0 0
 3074416 0.64100064 -0.640776704 0.301347696 -0.0135346157 0 0 0 0
 3090833 0.635378496 -0.642191184 0.305847184 -0.0180228315 0 0 0 0
 3107250 0.629790464 -0.643513936 0.310326496 -0.022635333 0 0 0 0
 3123666 0.624193984 -0.644710736 0.31472736 -0.0274351815 0 0 0 0
 3140083 0.618557888 -0.645821824 0.319080072 -0.0323468785 0 0 0 0
 3156500 0.6129392 -0.646801312 0.323353488 -0.037383161 0 0 0 0
 3172916 0.60732472 -0.647705616 0.327609248 -0.042582065 0 0 0 0
 3189333 0.601662704 -0.648515936 0.33173192 -0.047912476 0 0 0 0
 3205750 0.595988784 -0.649163536 0.335790272 -0.053433155 0 0 0 0
 3222166 0.590285856 -0.649759824 0.339751488 -0.059086786 0 0 0 0
 3238583 0.584556624 -0.650233008 0.343650656 -0.064831012 0 0 0 0
 3255000 0.578929488 -0.65060392 0.347384096 -0.07075147 0 0 0 0
 3271416 0.57330888 -0.650881968 0.3510526 -0.076755714 0 0 0 0
 3287833 0.567626544 -0.651124352 0.3545968 -0.082950212 0 0 0 0
 3304250 0.56199464 -0.651108464 0.358025312 -0.08923499 0 0 0 0
 3320666 0.55639472 -0.651144416 0.361341192 -0.0956213 0 0 0 0
 3337083 0.550834624 -0.65108024 0.364490992 -0.102179416 0 0 0 0
 3353500 0.54525504 -0.650890576 0.367539 -0.108825344 0 0 0 0
 3369916 0.539691152 -0.650499232 0.37041628 -0.115551824 0 0 0 0
 3386333 0.534182168 -0.650072432 0.373226208 -0.122415956 0 0 0 0
 3402750 0.52876592 -0.649534496 0.37588364 -0.129350828 0 0 0 0
 3419166 0.52330464 -0.648898896 0.378317208 -0.136445104 0 0 0 0
 3435583 0.517907016 -0.64815704 0.380654496 -0.14360104 0 0 0 0
 3452000 0.512529528 -0.64735096 0.382832968 -0.15082144 0 0 0 0
 3468416 0.507258664 -0.646456512 0.38485636 -0.158126136 0 0 0 0
 3484833 0.501985432 -0.645448352 0.386690856 -0.165560644 0 0 0 0
 3501250 0.496815888 -0.644379808 0.388405096 -0.173018084 0 0 0 0
 3517666 0.491640416 -0.643153104 0.389934288 -0.180545892 0 0 0 0
 3534083 0.486542232 -0.641919888 0.391282336 -0.18811294 0 0 0 0
 3550500 0.481514352 -0.6405732 0.392456032 -0.195784016 0 0 0 0
 3566916 0.476521552 -0.639141632 0.393476832 -0.203445428 0 0 0 0
 3583333 0.471609664 -0.637606192 0.394311328 -0.21119716 0 0 0 0
 3599750 0.46677108 -0.636031776 0.394978416 -0.218934088 0 0 0 0
 3616166 0.461996168 -0.634449952 0.395473472 -0.226742028 0 0 0 0
 3632583 0.457289648 -0.632659776 0.395779088 -0.234564972 0 0 0 0
 3649000 0.452634216 -0.63089392 0.395932224 -0.242434528 0 0 0 0
 3665416 0.448053528 -0.62903216 0.395893464 -0.250244176 0 0 0 0
 3681833 0.443547208 -0.627165632 0.395630416 -0.258089984 0 0 0 0
 3698250 0.43916184 -0.625170464 0.395271048 -0.265963552 0 0 0 0
 3714666 0.43481708 -0.623145712 0.394712712 -0.273800728 0 0 0 0
 3731083 0.430581256 -0.621091552 0.394007592 -0.281640384 0 0 0 0
 3747500 0.426393368 -0.618863296 0.39306524 -0.289434192 0 0 0 0
 3763916 0.422326024 -0.61671224 0.391969704 -0.297198408 0 0 0 0
 3780333 0.418260248 -0.614498544 0.39071912 -0.304982944 0 0 0 0
 3796750 0.414346072 -0.612237104 0.389332968 -0.312695248 0 0 0 0
 3813166 0.41044396 -0.609820448 0.38774176 -0.32037184 0 0 0 0
 3829583 0.406682088 -0.607559328 0.386014912 -0.328012336 0 0 0 0
 3846000 0.402927264 -0.605124352 0.384114984 -0.33557784 0 0 0 0
 3862416 0.399334464 -0.602749344 0.382054648 -0.343098408 0 0 0 0
 3878833 0.3958088 -0.600317952 0.379859888 -0.350590032 0 0 0 0
 3895250 0.392352872 -0.597807536 0.377479968 -0.358019536 0 0 0 0
 3911666 0.388983704 -0.595253312 0.374980888 -0.365342096 0 0 0 0
 3928083 0.385662472 -0.5927596 0.372328248 -0.372585312 0 0 0 0
 3944500 0.382473984 -0.590205616 0.369550472 -0.37979216 0 0 0 0
 3960916 0.37931468 -0.587640672 0.366619872 -0.386870336 0 0 0 0
 3977333 0.376257528 -0.585160624 0.363535888 -0.393957736 0 0 0 0
 3993750 0.373311888 -0.582595072 0.360389856 -0.400888416 0 0 0 0
 4010166 0.370399752 -0.580013856 0.357060344 -0.407761872 0 0 0 0
 4026583 0.367526512 -0.577381168 0.353614328 -0.414487792 0 0 0 0
 4043000 0.364780576 -0.574886912 0.350111016 -0.42116732 0 0 0 0
 4059416 0.362174512 -0.572333984 0.346465696 -0.427718096 0 0 0 0
 4075833 0.359558176 -0.569707488 0.342619336 -0.434219192 0 0 0 0
 4092250 0.357019 -0.567096464 0.338796216 -0.44059488 0 0 0 0
 4108666 0.35452092 -0.564466192 0.334777592 -0.446858472 0 0 0 0
 4125083 0.352184232 -0.561946832 0.33071444 -0.453023224 0 0 0 0
 4141500 0.349890912 -0.559289408 0.326545096 -0.459084288 0 0 0 0
 4157916 0.34755644 -0.556763536 0.322288088 -0.465063832 0 0 0 0
 4174333 0.345411296 -0.554229744 0.317988296 -0.470910208 0 0 0 0
 4190750 0.343354184 -0.551740624 0.313492784 -0.47664836 0 0 0 0
 4207166 0.341268696 -0.549186672 0.309050528 -0.48230612 0 0 0 0
 4223583 0.339270528 -0.546682816 0.304472264 -0.487845976 0 0 0 0
 4240000 0.337323456 -0.544166896 0.299850712 -0.493220136 0 0 0 0
 4256416 0.33546632 -0.54169936 0.295146096 -0.498511416 0 0 0 0
 4272833 0.333688744 -0.539244928 0.290372552 -0.503780768 0 0 0 0
 4289250 0.331874288 -0.536768912 0.285539016 -0.508777544 0 0 0 0
 4305666 0.330166568 -0.534373688 0.280721408 -0.513736552 0 0 0 0
 4322083 0.328514752 -0.531922152 0.275724168 -0.518632488 0 0 0 0
 4338500 0.326973832 -0.529659392 0.270776496 -0.523403096 0 0 0 0
 4354916 0.32537064 -0.52724944 0.265759216 -0.527987352 0 0 0 0
 4371333 0.323843616 -0.524936336 0.260708172 -0.532513024 0 0 0 0
 4387750 0.322472 -0.522602096 0.255619104 -0.536965216 0 0 0 0
 4404166 0.321011352 -0.520358672 0.250477644 -0.541273344 0 0 0 0
 4420583 0.319685192 -0.518099392 0.245329712 -0.54546864 0 0 0 0
 4437000 0.318303088 -0.515850432 0.240115732 -0.549549216 0 0 0 0
 4453416 0.317101232 -0.513624864 0.234922216 -0.553544448 0 0 0 0
 4469833 0.315839224 -0.511433008 0.229682728 -0.557423808 0 0 0 0
 4486250 0.3145972 -0.509258688 0.224411252 -0.561233456 0 0 0 0
 4502666 0.31343332 -0.507141296 0.219169388 -0.564917584 0 0 0 0
 4519083 0.312351016 -0.505083288 0.213859592 -0.568494128 0 0 0 0
 4535500 0.311198016 -0.502929008 0.20853632 -0.571971936 0 0 0 0
 4551916 0.310150336 -0.500946144 0.203241044 -0.5753756 0 0 0 0
 4568333 0.309158056 -0.498947544 0.1979614 -0.57862072 0 0 0 0
 4584750 0.308140896 -0.49690964 0.192576188 -0.581815456 0 0 0 0
 4601166 0.30721408 -0.494967568 0.187267652 -0.584930352 0 0 0 0
 4617583 0.306309864 -0.49304952 0.181946564 -0.587901712 0 0 0 0
 4634000 0.305399032 -0.491171632 0.176609756 -0.590823344 0 0 0 0
 4650416 0.304501488 -0.489260368 0.171247048 -0.593612608 0 0 0 0
 4666833 0.30369468 -0.48741476 0.165968476 -0.596380208 0 0 0 0
 4683250 0.302835776 -0.485622104 0.160611072 -0.59902104 0 0 0 0
 4699666 0.302014216 -0.483803304 0.155321588 -0.601586688 0 0 0 0
 4716083 0.30129296 -0.48201168 0.150013544 -0.604019568 0 0 0 0
 4732500 0.30053236 -0.480282232 0.144727648 -0.606447984 0 0 0 0
 4748916 0.29981716 -0.478587848 0.139420748 -0.608697472 0 0 0 0
 4765333 0.299144176 -0.476825528 0.134095534 -0.610942656 0 0 0 0
 4781750 0.298456728 -0.475215808 0.128864088 -0.613101888 0 0 0 0
 4798166 0.297766392 -0.473653512 0.123624322 -0.61517912 0 0 0 0
 4814583 0.29712696 -0.4720052 0.118392374 -0.617126432 0 0 0 0
 4831000 0.296499448 -0.4704818 0.113166154 -0.619043408 0 0 0 0
 4847416 0.295848136 -0.468956144 0.108002034 -0.620954592 0 0 0 0
 4863833 0.295287416 -0.46735972 0.102781862 -0.62266784 0 0 0 0
 4880250 0.294689288 -0.465911264 0.09764008 -0.624409904 0 0 0 0
 4896666 0.294080624 -0.464338464 0.092503838 -0.626006944 0 0 0 0
 4913083 0.293536248 -0.462936784 0.087385344 -0.627653664 0 0 0 0
 4929500 0.292959416 -0.461533856 0.082292764 -0.629141152 0 0 0 0
 4945916 0.29244972 -0.460124776 0.077232274 -0.630567856 0 0 0 0
 4962333 0.291848544 -0.458761608 0.072198838 -0.631951536 0 0 0 0
 4978750 0.291343168 -0.457420992 0.067145241 -0.63323944 0 0 0 0
 4995166 0.290941904 -0.45602636 0.062171222 -0.634564528 0 0 0 0
 5011583 0.290415504 -0.454787032 0.057163572 -0.6357272 0 0 0 0
 5028000 0.289895264 -0.45349756 0.052229256 -0.636864672 0 0 0 0
 5044416 0.289465632 -0.452208112 0.047280108 -0.637938144 0 0 0 0
 5060833 0.289015464 -0.450980376 0.042400087 -0.63897176 0 0 0 0
 5077250 0.288465296 -0.449736472 0.03752328 -0.639964864 0 0 0 0
 5093666 0.288074792 -0.448551184 0.032685814 -0.640897824 0 0 0 0
 5110083 0.28766296 -0.447426192 0.027860706 -0.641819104 0 0 0 0
 5126500 0.287192224 -0.446282696 0.0230740445 -0.642579024 0 0 0 0
 5142916 0.286811432 -0.4451082 0.018273224 -0.643348032 0 0 0 0
 5159333 0.286338928 -0.444006384 0.0136331113 -0.644097104 0 0 0 0
 5175750 0.285945976 -0.442932832 0.0088936265 -0.64478528 0 0 0 0
 5192166 0.285456008 -0.4418346 0.00417884475 -0.645381776 0 0 0 0
 5208583 0.285094664 -0.440814056 -0.0004537265 -0.645992512 0 0 0 0
 5225000 0.284693168 -0.439764328 -0.0050976875 -0.646487344 0 0 0 0
 5241416 0.2843018 -0.438727816 -0.00971128675 -0.64702136 0 0 0 0
 5257833 0.283908744 -0.437745576 -0.0142819778 -0.647446112 0 0 0 0
 5274249 0.283481448 -0.43677572 -0.018826552 -0.64796824 0 0 0 0
 5290666 0.283117808 -0.435737264 -0.0233290225 -0.648235504 0 0 0 0
 5307083 0.282736632 -0.434792896 -0.027840422 -0.64859424 0 0 0 0
 5323499 0.282348136 -0.43388488 -0.0322290895 -0.648871056 0 0 0 0
 5339916 0.2819822 -0.43294676 -0.0367205 -0.6491736 0 0 0 0
 5356333 0.281603008 -0.432143064 -0.041059108 -0.649402512 0 0 0 0
 5372749 0.281183704 -0.431266472 -0.045474412 -0.64955424 0 0 0 0
 5389166 0.28085328 -0.430332112 -0.049749013 -0.64975592 0 0 0 0
 5405583 0.280503 -0.429436232 -0.054073474 -0.64989288 0 0 0 0
 5421999 0.280049944 -0.42866864 -0.0583682 -0.649936224 0 0 0 0
 5438416 0.279745896 -0.427788992 -0.062593139 -0.649983168 0 0 0 0
 5454833 0.27933528 -0.426996112 -0.06683945 -0.65001144 0 0 0 0
 5471249 0.279017696 -0.426073784 -0.070976316 -0.649978544 0 0 0 0
 5487666 0.27858572 -0.425342912 -0.075165904 -0.649994688 0 0 0 0
 5504083 0.27827348 -0.424595112 -0.079250584 -0.649945152 0 0 0 0
 5520499 0.277836864 -0.423811584 -0.083467054 -0.649844336 0 0 0 0
 5536916 0.277457664 -0.423093424 -0.087496564 -0.649728352 0 0 0 0
 5553333 0.277053336 -0.422319296 -0.091589602 -0.64957352 0 0 0 0
 5569749 0.276737352 -0.421601576 -0.09558526 -0.649429968 0 0 0 0
 5586166 0.276325152 -0.42089088 -0.099643238 -0.649189328 0 0 0 0
 5602583 0.276015072 -0.420243696 -0.10358896 -0.648963632 0 0 0 0
 5618999 0.27563388 -0.419533056 -0.107530506 -0.648687808 0 0 0 0
 5635416 0.275194968 -0.4188976 -0.111443026 -0.648491712 0 0 0 0
 5651833 0.27490792 -0.41817912 -0.115330672 -0.648117456 0 0 0 0
 5668249 0.27450084 -0.417500264 -0.11923478 -0.647820464 0 0 0 0
 5684666 0.274156512 -0.416891184 -0.123060016 -0.647480272 0 0 0 0
 5701083 0.273791272 -0.41624852 -0.126846616 -0.647139472 0 0 0 0
 5717499 0.273429064 -0.415599024 -0.130617004 -0.64677656 0 0 0 0
 5733916 0.272979736 -0.415003584 -0.134402576 -0.646325552 0 0 0 0
 5750333 0.272666864 -0.41444144 -0.13811974 -0.645921888 0 0 0 0
 5766749 0.272219992 -0.413767632 -0.141884816 -0.645447088 0 0 0 0
 5783166 0.27187556 -0.41324248 -0.145517832 -0.645036432 0 0 0 0
 5799583 0.271555024 -0.41262584 -0.149177272 -0.6444824 0 0 0 0
 5815999 0.271193976 -0.412114064 -0.15283444 -0.64401072 0 0 0 0
 5832416 0.270778552 -0.411504688 -0.156429928 -0.64348216 0 0 0 0
 5848833 0.27031156 -0.410931472 -0.1600186 -0.642972 0 0 0 0
 5865249 0.2700004 -0.41041748 -0.163575348 -0.642380032 0 0 0 0
 5881666 0.269591912 -0.409910168 -0.167100576 -0.641837344 0 0 0 0
 5898083 0.269202984 -0.40935336 -0.170640924 -0.641222032 0 0 0 0
 5914499 0.268828376 -0.408902336 -0.174130372 -0.640632112 0 0 0 0
 5930916 0.26846304 -0.408329424 -0.177609332 -0.640037424 0 0 0 0
 5947333 0.268055888 -0.4078258 -0.181070256 -0.639374928 0 0 0 0
 5963749 0.267701912 -0.407336256 -0.184448976 -0.638717344 0 0 0 0
 5980166 0.267255124 -0.406852168 -0.1878505 -0.63801784 0 0 0 0
 5996583 0.266869812 -0.406391168 -0.191222876 -0.637422816 0 0 0 0
 6012999 0.266496972 -0.405819536 -0.194558184 -0.636663744 0 0 0 0
 6029416 0.266039648 -0.40538748 -0.197956248 -0.635966048 0 0 0 0
 6045833 0.26566656 -0.4049022 -0.201192908 -0.635257776 0 0 0 0
 6062249 0.2653201 -0.404454264 -0.204536988 -0.634526816 0 0 0 0
 6078666 0.26489456 -0.404001992 -0.207762592 -0.633766224 0 0 0 0
 6095083 0.26450738 -0.403610152 -0.210966236 -0.632985648 0 0 0 0
 6111499 0.264110924 -0.403134232 -0.21420244 -0.632269952 0 0 0 0
 6127916 0.263633188 -0.402663 -0.21741074 -0.6314444 0 0 0 0
 6144333 0.263246612 -0.40222004 -0.220585804 -0.630692704 0 0 0 0
 6160749 0.262832428 -0.401847784 -0.223755488 -0.629864912 0 0 0 0
 6177166 0.262360736 -0.401401 -0.226884748 -0.629065792 0 0 0 0
 6193583 0.261967544 -0.400979568 -0.229966108 -0.628210656 0 0 0 0
 6209999 0.261541716 -0.400593288 -0.233081532 -0.627363104 0 0 0 0
 6226416 0.261170748 -0.40015524 -0.236144248 -0.626515184 0 0 0 0
 6242833 0.26068076 -0.399800344 -0.239228892 -0.625652256 0 0 0 0
 6259249 0.26030174 -0.399383528 -0.242257416 -0.624794736 0 0 0 0
 6275666 0.259883964 -0.398975768 -0.245279564 -0.623916304 0 0 0 0
 6292083 0.259470696 -0.398620584 -0.248253704 -0.623076352 0 0 0 0
 6308499 0.259064804 -0.39816168 -0.251241328 -0.622126768 0 0 0 0
 6324916 0.258558672 -0.397790464 -0.254188944 -0.62125408 0 0 0 0
 6341333 0.258199048 -0.397441472 -0.25714338 -0.62028064 0 0 0 0
 6357749 0.257729808 -0.397142448 -0.260006152 -0.619419968 0 0 0 0
 6374166 0.257248088 -0.396703808 -0.262950896 -0.618477504 0 0 0 0
 6390583 0.25685278 -0.396369088 -0.265822112 -0.617514848 0 0 0 0
 6406999 0.25633626 -0.3959884 -0.268681464 -0.616580192 0 0 0 0
 6423416 0.255982184 -0.395596384 -0.271562744 -0.615579344 0 0 0 0
 6439833 0.25555222 -0.395278848 -0.274388992 -0.61462128 0 0 0 0
 6456249 0.255140656 -0.39494032 -0.277193592 -0.6136484 0 0 0 0
 6472666 0.254662 -0.394585864 -0.27994776 -0.612718656 0 0 0 0
 6489083 0.254280732 -0.394267592 -0.282753584 -0.6117184 0 0 0 0
 6505499 0.253675312 -0.39390248 -0.2855122 -0.61075248 0 0 0 0
 6521916 0.253311392 -0.393532968 -0.288200624 -0.609673376 0 0 0 0
 6538333 0.252820116 -0.393235592 -0.290959872 -0.608746144 0 0 0 0
 6554749 0.252444728 -0.392866352 -0.29368684 -0.607700096 0 0 0 0
 6571166 0.251952804 -0.392530304 -0.296392464 -0.606702624 0 0 0 0
 6587583 0.2515537 -0.392170104 -0.299051016 -0.60564672 0 0 0 0
 6603999 0.25102174 -0.391892352 -0.301676944 -0.60460192 0 0 0 0
 6620416 0.250539112 -0.3915638 -0.304264408 -0.603608592 0 0 0 0
 6636833 0.250128348 -0.391248112 -0.306992968 -0.602477088 0 0 0 0
 6653249 0.249654196 -0.390984504 -0.309568104 -0.601461248 0 0 0 0
 6669666 0.24921978 -0.390608952 -0.31216244 -0.600405504 0 0 0 0
 6686083 0.248728468 -0.390295712 -0.314728472 -0.599396608 0 0 0 0
 6702499 0.248318996 -0.389984824 -0.317296416 -0.598268368 0 0 0 0
 6718916 0.247781004 -0.389681144 -0.319878872 -0.597219856 0 0 0 0
 6735333 0.247393816 -0.389341936 -0.322370864 -0.596101376 0 0 0 0
 6751749 0.246902768 -0.389054776 -0.324897552 -0.595045984 0 0 0 0
 6768166 0.24645402 -0.388785264 -0.327353168 -0.593940528 0 0 0 0
 6784583 0.245942076 -0.388478792 -0.32986776 -0.592853088 0 0 0 0
 6800999 0.245504684 -0.388191512 -0.332346832 -0.591803552 0 0 0 0
 6817416 0.245115908 -0.387842096 -0.334794488 -0.590642976 0 0 0 0
 6833833 0.244635908 -0.387651848 -0.33725456 -0.58951912 0 0 0 0
 6850249 0.2441415 -0.387295512 -0.33966724 -0.588428272 0 0 0 0
 6866666 0.243660084 -0.38704512 -0.342098624 -0.587328464 0 0 0 0
 6883083 0.243205652 -0.38679544 -0.34449436 -0.586195104 0 0 0 0
 6899499 0.24273198 -0.386464456 -0.346893528 -0.585077088 0 0 0 0
 6915916 0.24226694 -0.386225608 -0.349213584 -0.583923344 0 0 0 0
 6932333 0.241797732 -0.385924064 -0.351599824 -0.582831984 0 0 0 0
 6948749 0.241326488 -0.385585304 -0.353922536 -0.581634448 0 0 0 0
 6965166 0.240788944 -0.385283704 -0.35626728 -0.580513552 0 0 0 0
 6981583 0.240339344 -0.38503012 -0.358572368 -0.57938664 0 0 0 0
 6997999 0.239875188 -0.384771048 -0.360890152 -0.578239376 0 0 0 0
 7014416 0.239410944 -0.384501192 -0.363136592 -0.577063792 0 0 0 0
 7030833 0.23886106 -0.384212728 -0.365422416 -0.575875584 0 0 0 0
 7047249 0.238406424 -0.383940512 -0.367712384 -0.574782368 0 0 0 0
 7063666 0.237982024 -0.383686488 -0.369954912 -0.573524496 0 0 0 0
 7080083 0.23748592 -0.383393304 -0.372199912 -0.57240896 0 0 0 0
 7096499 0.237026232 -0.383070168 -0.374422848 -0.5712284 0 0 0 0
 7112916 0.236524404 -0.382848008 -0.376655808 -0.57009408 0 0 0 0
 7129333 0.236041912 -0.38255612 -0.378833592 -0.568871696 0 0 0 0
 7145749 0.235544692 -0.382259744 -0.381053592 -0.567724816 0 0 0 0
 7162166 0.235084916 -0.382052072 -0.383181824 -0.566505952 0 0 0 0
 7178583 0.234579248 -0.381730864 -0.385397624 -0.565281968 0 0 0 0
 7194999 0.234142976 -0.381503608 -0.387506896 -0.564174512 0 0 0 0
 7211416 0.2336306 -0.381279768 -0.3896614 -0.562926352 0 0 0 0
 7227833 0.233089156 -0.381017584 -0.391775368 -0.56176304 0 0 0 0
 7244249 0.232670528 -0.380720432 -0.393865208 -0.560553856 0 0 0 0
 7260666 0.232199128 -0.380477728 -0.395970168 -0.55940704 0 0 0 0
 7277083 0.231743936 -0.38021248 -0.398071 -0.558177104 0 0 0 0
 7293499 0.231162852 -0.379934464 -0.40014784 -0.556962288 0 0 0 0
 7309916 0.230742 -0.379675192 -0.402198208 -0.5557272 0 0 0 0
 7326333 0.230288668 -0.379432216 -0.404311272 -0.554543088 0 0 0 0
 7342749 0.229687772 -0.379154152 -0.406316296 -0.553381984 0 0 0 0
 7359166 0.229249088 -0.378892944 -0.408408936 -0.552113792 0 0 0 0
 7375583 0.228770872 -0.37866696 -0.410406432 -0.55087712 0 0 0 0
 7391999 0.228299936 -0.378399072 -0.412403648 -0.549659584 0 0 0 0
 7408416 0.227780556 -0.378223344 -0.414411928 -0.548471952 0 0 0 0
 7424833 0.227317324 -0.377910776 -0.416402456 -0.547200208 0 0 0 0
 7441249 0.226759268 -0.3776268 -0.418364184 -0.546037072 0 0 0 0
 7457666 0.226266628 -0.377399512 -0.420296664 -0.54475656 0 0 0 0
 7474083 0.225813992 -0.377060144 -0.422309296 -0.543548464 0 0 0 0
 7490499 0.225393712 -0.376820432 -0.424256072 -0.542308384 0 0 0 0
 7506916 0.224871288 -0.37663868 -0.426196352 -0.541117632 0 0 0 0
 7523333 0.224386288 -0.3763192 -0.428075352 -0.539826736 0 0 0 0
 7539749 0.22387944 -0.37602996 -0.430054648 -0.5385832 0 0 0 0
 7556166 0.223426152 -0.3758706 -0.431953176 -0.537382016 0 0 0 0
 7572583 0.222937092 -0.375607704 -0.433820896 -0.53610964 0 0 0 0
 7588999 0.222458332 -0.375359864 -0.435722176 -0.534895592 0 0 0 0
 7605416 0.221977964 -0.3751522 -0.437616808 -0.533625624 0 0 0 0
 7621833 0.221479108 -0.37489944 -0.4394532 -0.532388512 0 0 0 0
 7638249 0.220974164 -0.374579832 -0.441312448 -0.531117792 0 0 0 0
 7654666 0.220502616 -0.374363736 -0.443202576 -0.529875248 0 0 0 0
 7671083 0.219967632 -0.374115248 -0.444988816 -0.52860948 0 0 0 0
 7687499 0.219500856 -0.373843496 -0.44683884 -0.527398856 0 0 0 0
 7703916 0.219010452 -0.373574864 -0.448635576 -0.52615548 0 0 0 0
 7720333 0.21845594 -0.37339356 -0.450450016 -0.524821256 0 0 0 0
 7736749 0.21798438 -0.373165848 -0.452203584 -0.523587056 0 0 0 0
 7753166 0.217602656 -0.372843272 -0.454002896 -0.522312088 0 0 0 0
 7769583 0.217043476 -0.37263668 -0.45581356 -0.521115472 0 0 0 0
 7785999 0.2165873 -0.372350048 -0.457569328 -0.519785328 0 0 0 0
 7802416 0.216111344 -0.372124264 -0.459369384 -0.518575272 0 0 0 0
 7818833 0.215629548 -0.371806992 -0.461065928 -0.517288264 0 0 0 0
 7835249 0.21507888 -0.37163516 -0.462826104 -0.516035824 0 0 0 0
 7851666 0.214662372 -0.371398648 -0.464580616 -0.514757224 0 0 0 0
 7868083 0.21414886 -0.371135992 -0.466293328 -0.513481984 0 0 0 0
 7884499 0.213729488 -0.370888712 -0.46800604 -0.5121686 0 0 0 0
 7900916 0.213161316 -0.370600008 -0.469729552 -0.510953032 0 0 0 0
 7917333 0.212712132 -0.370374016 -0.471414984 -0.509676544 0 0 0 0
 7933749 0.21221648 -0.370127392 -0.473097656 -0.508372144 0 0 0 0
 7950166 0.211705904 -0.369939264 -0.474774184 -0.50716676 0 0 0 0
 7966583 0.211241556 -0.369676768 -0.476404752 -0.505853512 0 0 0 0
 7982999 0.21073982 -0.36938864 -0.47813052 -0.504576208 0 0 0 0
 7999416 0.210297024 -0.369145024 -0.479723552 -0.503277704 0 0 0 0
 8015833 0.209809508 -0.368870448 -0.481398272 -0.502019528 0 0 0 0
 8032249 0.209267636 -0.368691768 -0.483047216 -0.500766224 0 0 0 0
 8048666 0.208802624 -0.368396088 -0.484642384 -0.499462184 0 0 0 0
 8065083 0.208329668 -0.368199272 -0.486304328 -0.498182392 0 0 0 0
 8081499 0.207896812 -0.367913648 -0.487917072 -0.496921416 0 0 0 0
 8097916 0.207405144 -0.367702816 -0.48951808 -0.49561612 0 0 0 0
 8114333 0.206883832 -0.367391256 -0.491062968 -0.49434844 0 0 0 0
 8130749 0.206345256 -0.367190968 -0.492681024 -0.49304596 0 0 0 0
 8147166 0.205940648 -0.366933128 -0.494281648 -0.49171936 0 0 0 0
 8163583 0.205430008 -0.366696592 -0.495875416 -0.49046656 0 0 0 0
 8179999 0.20501892 -0.366448592 -0.497383104 -0.489205608 0 0 0 0
 8196416 0.204522652 -0.36622372 -0.499020944 -0.487912824 0 0 0 0
 8212833 0.204033772 -0.365983144 -0.500485704 -0.48660864 0 0 0 0
 8229249 0.20357308 -0.365720432 -0.502070752 -0.485301112 0 0 0 0
 8245666 0.203068484 -0.365538584 -0.50355504 -0.484045128 0 0 0 0
 8262083 0.20257178 -0.365234984 -0.505116808 -0.482728896 0 0 0 0
 8278499 0.202073464 -0.365036912 -0.506631136 -0.481452576 0 0 0 0
 8294916 0.201566384 -0.36475688 -0.508149072 -0.480143952 0 0 0 0
 8311333 0.201141508 -0.36448168 -0.509626584 -0.4788624 0 0 0 0
 8327749 0.20067794 -0.364224824 -0.511099952 -0.477535056 0 0 0 0
 8344166 0.200150532 -0.36403052 -0.51258412 -0.47630376 0 0 0 0
 8360583 0.1997705 -0.363748312 -0.514086384 -0.474937064 0 0 0 0
 8376999 0.199177448 -0.363552864 -0.515577288 -0.47366432 0 0 0 0
 8393416 0.198760784 -0.36326344 -0.516993696 -0.47237644 0 0 0 0
 8409833 0.19827574 -0.36301664 -0.518493984 -0.471034152 0 0 0 0
 8426249 0.19784746 -0.362761488 -0.519934072 -0.469726784 0 0 0 0
 8442666 0.197321912 -0.362469904 -0.52137592 -0.468445752 0 0 0 0
 8459083 0.196884736 -0.362290968 -0.522798856 -0.467168368 0 0 0 0
 8475499 0.196420064 -0.362048648 -0.524194112 -0.465874952 0 0 0 0
 8491916 0.195981276 -0.361813192 -0.525639672 -0.464592512 0 0 0 0
 8508333 0.195509172 -0.361564128 -0.527026056 -0.463272488 0 0 0 0
 8524749 0.195014028 -0.361345512 -0.528416528 -0.462004424 0 0 0 0
 8541166 0.19455122 -0.361066408 -0.529859424 -0.46064664 0 0 0 0
 8557583 0.194113956 -0.360802872 -0.531261904 -0.459339112 0 0 0 0
 8573999 0.19366038 -0.360606272 -0.532601832 -0.458062488 0 0 0 0
 8590416 0.193128364 -0.360361408 -0.534045584 -0.45675532 0 0 0 0
 8606833 0.192703652 -0.360133752 -0.535349328 -0.455497152 0 0 0 0
 8623249 0.192224188 -0.359849608 -0.536744608 -0.45417224 0 0 0 0
 8639666 0.191782368 -0.359592144 -0.538084816 -0.452864624 0 0 0 0
 8656083 0.191274284 -0.359394664 -0.539436416 -0.451558384 0 0 0 0
 8672499 0.19088578 -0.359122408 -0.540781104 -0.450263704 0 0 0 0
 8688916 0.190381376 -0.358824632 -0.542123696 -0.448950704 0 0 0 0
 8705333 0.189880296 -0.358614736 -0.543448864 -0.447630176 0 0 0 0
 8721749 0.189451528 -0.358325344 -0.54474904 -0.446319856 0 0 0 0
 8738166 0.188983232 -0.358068112 -0.546104192 -0.445015088 0 0 0 0
 8754583 0.18856262 -0.357883328 -0.547408112 -0.443781736 0 0 0 0
 8770999 0.18803114 -0.357566032 -0.548722992 -0.4424274 0 0 0 0
 8787416 0.187629452 -0.357370088 -0.549993408 -0.441089432 0 0 0 0
 8803833 0.187175 -0.357068376 -0.551284224 -0.439818256 0 0 0 0
 8820249 0.186681288 -0.356902304 -0.552591952 -0.4385008 0 0 0 0
 8836666 0.186248952 -0.356615176 -0.55385768 -0.437183752 0 0 0 0
 8853083 0.185752024 -0.35642072 -0.555154768 -0.43593932 0 0 0 0
 8869499 0.185330732 -0.356172904 -0.556397024 -0.4345824 0 0 0 0
 8885916 0.184867648 -0.35593376 -0.55765504 -0.43333496 0 0 0 0
 8902333 0.184453988 -0.355694952 -0.558892928 -0.43195712 0 0 0 0
 8918749 0.183929 -0.355383888 -0.560147744 -0.430661352 0 0 0 0
 8935166 0.1835167 -0.3552104 -0.561389216 -0.429345736 0 0 0 0
 8951583 0.183068572 -0.354927424 -0.562647552 -0.428075552 0 0 0 0
 8967999 0.182638204 -0.354719336 -0.56383072 -0.426771352 0 0 0 0
 8984416 0.182186868 -0.354422976 -0.565066016 -0.425446144 0 0 0 0
 9000833 0.181712276 -0.35417308 -0.566282896 -0.424116088 0 0 0 0
 9017249 0.18129438 -0.35385896 -0.567525824 -0.422838088 0 0 0 0
 9033666 0.18081758 -0.3537464 -0.568682016 -0.421543744 0 0 0 0
 9050083 0.180416432 -0.353437912 -0.56991208 -0.420186264 0 0 0 0
 9066499 0.179938564 -0.353167208 -0.571117472 -0.418939032 0 0 0 0
 9082916 0.179529012 -0.352938968 -0.572281888 -0.417578768 0 0 0 0
 9099333 0.179105504 -0.352732616 -0.57350456 -0.416270224 0 0 0 0
 9115749 0.178687944 -0.35246284 -0.574619456 -0.414976792 0 0 0 0
 9132166 0.178172836 -0.352222984 -0.575808128 -0.413689616 0 0 0 0
 9148583 0.177748412 -0.351949592 -0.57695104 -0.412349816 0 0 0 0
 9164999 0.177363516 -0.351671104 -0.578140688 -0.411070728 0 0 0 0
 9181416 0.176887292 -0.35144264 -0.579250336 -0.40976912 0 0 0 0
 9197833 0.176510656 -0.351146136 -0.580431808 -0.408426048 0 0 0 0
 9214249 0.17595714 -0.350910272 -0.58153816 -0.407149672 0 0 0 0
 9230666 0.175588332 -0.350708064 -0.582667808 -0.405863624 0 0 0 0
 9247083 0.175117184 -0.350458912 -0.583818784 -0.404524656 0 0 0 0
 9263499 0.174624744 -0.350201664 -0.584942464 -0.40319264 0 0 0 0
 9279916 0.174255888 -0.34997412 -0.586073072 -0.401904968 0 0 0 0
 9296333 0.173768808 -0.349712328 -0.587162496 -0.400631224 0 0 0 0
 9312749 0.173380732 -0.349392792 -0.58833152 -0.399286824 0 0 0 0
 9329166 0.172956744 -0.349172792 -0.589378144 -0.397990112 0 0 0 0
 9345583 0.172527904 -0.348926152 -0.59050808 -0.396677424 0 0 0 0
 9361999 0.172091204 -0.348704408 -0.591600832 -0.395385928 0 0 0 0
 9378416 0.171643964 -0.348404744 -0.592660256 -0.394023304 0 0 0 0
 9394833 0.171256104 -0.348238184 -0.593665872 -0.392752424 0 0 0 0
 9411249 0.170815544 -0.347973072 -0.594789824 -0.391442856 0 0 0 0
 9427666 0.17035296 -0.347761072 -0.595867664 -0.390157168 0 0 0 0
 9444083 0.169984328 -0.347478184 -0.596946208 -0.388846488 0 0 0 0
 9460499 0.169502592 -0.347233248 -0.59801032 -0.387577032 0 0 0 0
 9476916 0.169142384 -0.346958792 -0.599058656 -0.386191216 0 0 0 0
 9493333 0.16866758 -0.346717872 -0.600060864 -0.38494572 0 0 0 0
 9509749 0.168256804 -0.346452328 -0.601082496 -0.383623088 0 0 0 0
 9526166 0.167837728 -0.346173848 -0.60220064 -0.382321448 0 0 0 0
 9542583 0.167463928 -0.345996208 -0.6031876 -0.381008448 0 0 0 0
 9558999 0.167060264 -0.345693512 -0.604189104 -0.379695576 0 0 0 0
 9575416 0.166581688 -0.345489888 -0.605248464 -0.378426224 0 0 0 0
 9591833 0.1661776 -0.345237208 -0.60627416 -0.377040408 0 0 0 0
 9608249 0.165702716 -0.344995712 -0.607275808 -0.375804784 0 0 0 0
 9624666 0.165378576 -0.34470864 -0.608303488 -0.374484576 0 0 0 0
 9641083 0.1648759 -0.344442696 -0.609254576 -0.373204744 0 0 0 0
 9657499 0.164546016 -0.344169128 -0.61027944 -0.371909976 0 0 0 0
 9673916 0.164083816 -0.343901672 -0.611270848 -0.37057732 0 0 0 0
 9690333 0.163667748 -0.34373504 -0.6122668 -0.369317088 0 0 0 0
 9706749 0.163285224 -0.343422448 -0.61322248 -0.367966552 0 0 0 0
 9723166 0.16283594 -0.343173128 -0.61420328 -0.366649632 0 0 0 0
 9739583 0.162404716 -0.342967912 -0.615242768 -0.365372944 0 0 0 0
 9755999 0.162020832 -0.342726472 -0.616143248 -0.364079696 0 0 0 0
 9772416 0.161665876 -0.342485552 -0.617105248 -0.362733744 0 0 0 0
 9788833 0.161171204 -0.342224976 -0.618077264 -0.361471512 0 0 0 0
 9805249 0.160807516 -0.34195536 -0.619014176 -0.360202616 0 0 0 0
 9821666 0.160392724 -0.341734 -0.619951216 -0.358878712 0 0 0 0
 9838083 0.15998894 -0.341445648 -0.620880528 -0.357574552 0 0 0 0
 9854499 0.159586168 -0.341208048 -0.621802736 -0.356311216 0 0 0 0
 9870916 0.159184912 -0.340983888 -0.622725328 -0.354989048 0 0 0 0
 9887333 0.158794892 -0.340748856 -0.623667824 -0.353684632 0 0 0 0
 9903749 0.158419284 -0.340475992 -0.624650768 -0.352406512 0 0 0 0
 9920166 0.15792502 -0.340182848 -0.62554288 -0.351072368 0 0 0 0
 9936583 0.157620908 -0.339954576 -0.626459024 -0.349805424 0 0 0 0
 9952999 0.1571678 -0.339645568 -0.627378352 -0.348471648 0 0 0 0
 9969416 0.156772004 -0.339505368 -0.628296144 -0.347254856 0 0 0 0
 9985833 0.156378196 -0.339224296 -0.62910656 -0.345901376 0 0 0 0
 10002249 0.155985808 -0.338969912 -0.630076368 -0.344644136 0 0 0 0
 10018666 0.155617796 -0.338718536 -0.63094024 -0.343340168 0 0 0 0
 10035083 0.155200056 -0.338485736 -0.63181312 -0.34204144 0 0 0 0
 10051499 0.154807952 -0.338263568 -0.63270856 -0.340715968 0 0 0 0
 10067916 0.154436332 -0.337904816 -0.633618816 -0.339426176 0 0 0 0
 10084333 0.154041316 -0.337641136 -0.63447032 -0.338107736 0 0 0 0
 10100749 0.153687104 -0.33745452 -0.635371088 -0.336877528 0 0 0 0
 10117166 0.153251664 -0.337226376 -0.636217136 -0.335593728 0 0 0 0
 10133583 0.15286808 -0.336945008 -0.637032768 -0.334255408 0 0 0 0
 10150000 0.152438616 -0.336740008 -0.637892 -0.3329492 0 0 0 0
 10166416 0.15210998 -0.336435944 -0.638758768 -0.331666296 0 0 0 0
 10182833 0.151699168 -0.33621704 -0.639636016 -0.330404392 0 0 0 0
 10199250 0.151302128 -0.335945776 -0.640422064 -0.329098792 0 0 0 0
 10215666 0.150892884 -0.335662448 -0.64132568 -0.327813104 0 0 0 0
 10232083 0.15050644 -0.335443664 -0.642120976 -0.326533776 0 0 0 0
 10248500 0.150155696 -0.335168504 -0.642948224 -0.325206928 0 0 0 0
 10264916 0.149732936 -0.334947568 -0.643749296 -0.323968408 0 0 0 0
 10281333 0.149349868 -0.334727528 -0.6445948 -0.322689336 0 0 0 0
 10297750 0.148996288 -0.334499872 -0.645419584 -0.321374392 0 0 0 0
 10314166 0.148604644 -0.3341472 -0.646194112 -0.3200958 0 0 0 0
 10330583 0.148243156 -0.333923024 -0.647013328 -0.31885696 0 0 0 0
 10347000 0.147833404 -0.333684688 -0.647816832 -0.317521472 0 0 0 0
 10363416 0.147492008 -0.333440952 -0.648619856 -0.316245272 0 0 0 0
 10379833 0.147140244 -0.333165728 -0.649418688 -0.31494044 0 0 0 0
 10396250 0.146711128 -0.332885624 -0.650205824 -0.31365044 0 0 0 0
 10412666 0.146406524 -0.33268104 -0.651017488 -0.312414144 0 0 0 0
 10429083 0.145970416 -0.332446824 -0.65178288 -0.311096312 0 0 0 0
 10445500 0.145652076 -0.332220368 -0.65255552 -0.309833304 0 0 0 0
 10461916 0.145264612 -0.33187848 -0.653372048 -0.308549832 0 0 0 0
 10478333 0.144904316 -0.331679688 -0.65409208 -0.307295592 0 0 0 0
 10494750 0.144507628 -0.331425544 -0.6548728 -0.305963792 0 0 0 0
 10511166 0.14412578 -0.331243344 -0.655606672 -0.304726176 0 0 0 0
 10527583 0.143804564 -0.33091036 -0.656391888 -0.303411576 0 0 0 0
 10544000 0.143406492 -0.330685608 -0.657171776 -0.302119216 0 0 0 0
 10560416 0.14305866 -0.330411648 -0.657897984 -0.30085516 0 0 0 0
 10576833 0.142590776 -0.33017072 -0.65866848 -0.299564144 0 0 0 0
 10593250 0.142346 -0.329903696 -0.65946776 -0.29832744 0 0 0 0
 10609666 0.141919876 -0.329693336 -0.660161152 -0.297001168 0 0 0 0
 10626083 0.141608788 -0.329426608 -0.660860928 -0.295740568 0 0 0 0
 10642500 0.141213808 -0.329179544 -0.661604256 -0.294474872 0 0 0 0
 10658916 0.140865784 -0.32896516 -0.66232568 -0.29315228 0 0 0 0
 10675333 0.140542332 -0.328680616 -0.663078496 -0.29197372 0 0 0 0
 10691750 0.140131744 -0.328411128 -0.663766752 -0.290668368 0 0 0 0
 10708166 0.139805348 -0.328201744 -0.664498128 -0.289355888 0 0 0 0
 10724583 0.139391132 -0.327963968 -0.665221616 -0.288091416 0 0 0 0
 10741000 0.139046356 -0.327714432 -0.665907104 -0.286825312 0 0 0 0
 10757416 0.13868018 -0.327392808 -0.666653536 -0.285560112 0 0 0 0
 10773833 0.138391336 -0.327195904 -0.66729008 -0.284282432 0 0 0 0
 10790250 0.138018528 -0.32695996 -0.66799256 -0.283010768 0 0 0 0
 10806666 0.137682112 -0.32674072 -0.668687888 -0.281734992 0 0 0 0
 10823083 0.13729652 -0.326453776 -0.669391424 -0.280475592 0 0 0 0
 10839500 0.136977824 -0.32617168 -0.67008152 -0.279200656 0 0 0 0
 10855916 0.1366046 -0.325917872 -0.670777296 -0.277903016 0 0 0 0
 10872333 0.136211432 -0.32568068 -0.671433248 -0.27665272 0 0 0 0
 10888750 0.135903608 -0.325458088 -0.672104464 -0.275411536 0 0 0 0
 10905166 0.135521356 -0.325230992 -0.672784144 -0.274146296 0 0 0 0
 10921583 0.135203024 -0.324964576 -0.673439392 -0.272836928 0 0 0 0
 10938000 0.134866932 -0.324683656 -0.674143504 -0.27164856 0 0 0 0
 10954416 0.134518008 -0.324500288 -0.674778832 -0.270342952 0 0 0 0
 10970833 0.13413679 -0.324252928 -0.675436528 -0.269080168 0 0 0 0
 10987250 0.133828848 -0.323962824 -0.676044944 -0.267856056 0 0 0 0
 11003666 0.13348567 -0.323716328 -0.67672464 -0.266558192 0 0 0 0
 11020083 0.133146434 -0.323495568 -0.677367504 -0.265301756 0 0 0 0
 11036500 0.132790668 -0.323237632 -0.678017984 -0.263984304 0 0 0 0
 11052916 0.132473356 -0.323006032 -0.67863952 -0.262741992 0 0 0 0
 11069333 0.132127588 -0.322713952 -0.679317408 -0.261511388 0 0 0 0
 11085750 0.13171491 -0.3225076 -0.679894144 -0.260280212 0 0 0 0
 11102166 0.131481468 -0.322276296 -0.680564224 -0.259005492 0 0 0 0
 11118583 0.131080198 -0.32200232 -0.681203104 -0.257762452 0 0 0 0
 11135000 0.130730398 -0.321786544 -0.681784432 -0.256474212 0 0 0 0
 11151416 0.13037917 -0.321504864 -0.682449136 -0.255207708 0 0 0 0
 11167833 0.130050326 -0.32132932 -0.682999392 -0.253973924 0 0 0 0
 11184250 0.129761658 -0.321077264 -0.683634864 -0.25271006 0 0 0 0
 11200666 0.129410692 -0.320769728 -0.684202672 -0.25146174 0 0 0 0
 11217083 0.129042948 -0.320533888 -0.684860304 -0.25022006 0 0 0 0
 11233500 0.128721582 -0.320285896 -0.68548312 -0.248952484 0 0 0 0
 11249916 0.128395492 -0.3200046 -0.686046896 -0.247695412 0 0 0 0
 11266333 0.128051224 -0.319744248 -0.686633472 -0.246461328 0 0 0 0
 11282750 0.127756222 -0.319490872 -0.687208336 -0.245202904 0 0 0 0
 11299166 0.127437614 -0.319197528 -0.687832112 -0.243972964 0 0 0 0
 11315583 0.127102618 -0.3190232 -0.68838136 -0.242775416 0 0 0 0
 11332000 0.126771302 -0.318774824 -0.688953488 -0.241468008 0 0 0 0
 11348416 0.126422626 -0.318556816 -0.689550496 -0.240232388 0 0 0 0
 11364833 0.126161076 -0.318325488 -0.690136656 -0.238967276 0 0 0 0
 11381250 0.125760346 -0.318087432 -0.690655472 -0.237716872 0 0 0 0
 11397666 0.125453504 -0.31782376 -0.691244512 -0.236486308 0 0 0 0
 11414083 0.125120218 -0.317603104 -0.69182456 -0.23523772 0 0 0 0
 11430500 0.124851714 -0.317303536 -0.692361984 -0.233997856 0 0 0 0
 11446916 0.124493978 -0.317064616 -0.692910096 -0.232755504 0 0 0 0
 11463333 0.124238224 -0.31684544 -0.693499328 -0.231497316 0 0 0 0
 11479750 0.123853312 -0.31659284 -0.69400128 -0.230250588 0 0 0 0
 11496166 0.123574138 -0.316357416 -0.694541952 -0.2289943 0 0 0 0
 11512583 0.123225368 -0.316117216 -0.695106752 -0.227797 0 0 0 0
 11529000 0.122877142 -0.315866488 -0.695638976 -0.2265059 0 0 0 0
 11545416 0.122510186 -0.315576152 -0.696191296 -0.225354944 0 0 0 0
 11561833 0.12224162 -0.31535608 -0.696670128 -0.224033236 0 0 0 0
 11578250 0.121958538 -0.315094312 -0.69726312 -0.222800148 0 0 0 0
 11594666 0.121615542 -0.314919152 -0.697739648 -0.221559548 0 0 0 0
 11611083 0.121354054 -0.314617088 -0.698281008 -0.220365072 0 0 0 0
 11627500 0.121054724 -0.3143868 -0.698786928 -0.219138224 0 0 0 0
 11643916 0.120733876 -0.31411376 -0.69937352 -0.217860736 0 0 0 0
 11660333 0.12035388 -0.313921992 -0.699826848 -0.216647516 0 0 0 0
 11676750 0.120085938 -0.31363336 -0.700345984 -0.215395512 0 0 0 0
 11693166 0.11972857 -0.313386136 -0.700861328 -0.214183056 0 0 0 0
 11709583 0.119426706 -0.313193664 -0.701380672 -0.212939708 0 0 0 0
 11726000 0.119078878 -0.312972416 -0.701841696 -0.211702668 0 0 0 0
 11742416 0.118819544 -0.3126752 -0.702372336 -0.210483392 0 0 0 0
 11758833 0.118546854 -0.31242472 -0.702902608 -0.209229624 0 0 0 0
 11775250 0.118213884 -0.312212432 -0.703337104 -0.208050788 0 0 0 0
 11791666 0.117896054 -0.312008112 -0.703825216 -0.2067512 0 0 0 0
 11808083 0.117616414 -0.311715672 -0.70430312 -0.205583992 0 0 0 0
 11824500 0.117263012 -0.311518792 -0.704801584 -0.204360684 0 0 0 0
 11840916 0.117021366 -0.311236536 -0.705238448 -0.203124008 0 0 0 0
 11857333 0.116677856 -0.311056208 -0.705737296 -0.201901668 0 0 0 0
 11873750 0.116384714 -0.310713928 -0.706234368 -0.200635744 0 0 0 0
 11890166 0.116110604 -0.31053492 -0.706752976 -0.199412872 0 0 0 0
 11906583 0.115725118 -0.310263872 -0.707203664 -0.19819138 0 0 0 0
 11923000 0.115441396 -0.310021672 -0.707635024 -0.196972388 0 0 0 0
 11939416 0.115135186 -0.309765264 -0.708072176 -0.1957469 0 0 0 0
 11955833 0.114882212 -0.309580768 -0.708529376 -0.194505988 0 0 0 0
 11972250 0.114652972 -0.309270968 -0.709007216 -0.193325228 0 0 0 0
 11988666 0.114294878 -0.309113568 -0.7094512 -0.192091628 0 0 0 0
 12005083 0.113959228 -0.308830104 -0.709921488 -0.190872956 0 0 0 0
 12021500 0.113710786 -0.308593392 -0.710323072 -0.189679596 0 0 0 0
 12037916 0.113411604 -0.308355072 -0.710847696 -0.188392512 0 0 0 0
 12054333 0.113086246 -0.308127928 -0.711282336 -0.187229708 0 0 0 0
 12070750 0.112832348 -0.307873496 -0.711701296 -0.1859876 0 0 0 0
 12087166 0.112511912 -0.307638664 -0.712175984 -0.184799928 0 0 0 0
 12103583 0.112232868 -0.307412352 -0.7125828 -0.183621208 0 0 0 0
 12120000 0.111961088 -0.307135136 -0.71301016 -0.182370864 0 0 0 0
 12136416 0.111660628 -0.306910272 -0.713410944 -0.181176896 0 0 0 0
 12152833 0.111375098 -0.30666508 -0.713845872 -0.179945776 0 0 0 0
 12169250 0.111064986 -0.306433512 -0.71431144 -0.178716128 0 0 0 0
 12185666 0.110857802 -0.30620068 -0.714709408 -0.177491168 0 0 0 0
 12202083 0.1105169 -0.305948664 -0.715118128 -0.176353644 0 0 0 0
 12218500 0.110250984 -0.305724104 -0.715515664 -0.175080328 0 0 0 0
 12234916 0.109932032 -0.305466352 -0.715966928 -0.173854852 0 0 0 0
 12251333 0.1097182 -0.305205392 -0.716372416 -0.17273744 0 0 0 0
 12267750 0.10940558 -0.304965696 -0.7167516 -0.17147568 0 0 0 0
 12284166 0.109088776 -0.304797168 -0.717186464 -0.17027302 0 0 0 0
 12300583 0.108794444 -0.304509408 -0.717587744 -0.169061164 0 0 0 0
 12317000 0.10853782 -0.304338704 -0.717998992 -0.167912596 0 0 0 0
 12333416 0.10826643 -0.304048424 -0.718348304 -0.16666522 0 0 0 0
 12349833 0.107959318 -0.303798552 -0.71875312 -0.165426412 0 0 0 0
 12366250 0.10772109 -0.303526904 -0.719100528 -0.164247056 0 0 0 0
 12382666 0.10739536 -0.303325408 -0.719492064 -0.163056332 0 0 0 0
 12399083 0.107158762 -0.30314724 -0.719923904 -0.161870796 0 0 0 0
 12415500 0.106874338 -0.302885216 -0.720301568 -0.160687536 0 0 0 0
 12431916 0.106595662 -0.302675408 -0.72065248 -0.15945092 0 0 0 0
 12448333 0.106302362 -0.302405328 -0.721053664 -0.158272428 0 0 0 0
 12464750 0.106033462 -0.302195672 -0.721423584 -0.15707828 0 0 0 0
 12481166 0.105759366 -0.301989848 -0.72177224 -0.155884024 0 0 0 0
 12497583 0.105418574 -0.30176044 -0.722153584 -0.154663052 0 0 0 0
 12514000 0.10520546 -0.301455064 -0.722552544 -0.153498608 0 0 0 0
 12530416 0.10496452 -0.301320416 -0.72287504 -0.152283416 0 0 0 0
 12546833 0.104677072 -0.301033016 -0.723259776 -0.15108464 0 0 0 0
 12563250 0.104416548 -0.30079244 -0.723587472 -0.149915468 0 0 0 0
 12579666 0.104153288 -0.300546248 -0.723916384 -0.148729424 0 0 0 0
 12596083 0.103848814 -0.300299232 -0.72429552 -0.147524716 0 0 0 0
 12612500 0.10360353 -0.300118704 -0.72463088 -0.146356628 0 0 0 0
 12628916 0.103298724 -0.299794936 -0.724979168 -0.145173096 0 0 0 0
 12645333 0.103011462 -0.299594632 -0.72529424 -0.143964636 0 0 0 0
 12661750 0.10275137 -0.299301528 -0.725735856 -0.142781024 0 0 0 0
 12678166 0.10247339 -0.299152104 -0.726009072 -0.141627216 0 0 0 0
 12694583 0.102262538 -0.29884848 -0.726356432 -0.140373404 0 0 0 0
 12711000 0.101946492 -0.298617328 -0.72671304 -0.139233336 0 0 0 0
 12727416 0.101715876 -0.298378232 -0.72703824 -0.138032896 0 0 0 0
 12743833 0.101422056 -0.298216864 -0.72733064 -0.136883856 0 0 0 0
 12760250 0.101192354 -0.298011624 -0.727635072 -0.13566296 0 0 0 0
 12776666 0.100910078 -0.297749368 -0.727978224 -0.134446144 0 0 0 0
 12793083 0.100679706 -0.297566424 -0.728295232 -0.133305212 0 0 0 0
 12809500 0.10036837 -0.297276288 -0.728639152 -0.132166744 0 0 0 0
 12825916 0.100160286 -0.297058504 -0.728960784 -0.13095117 0 0 0 0
 12842333 0.099861924 -0.296793472 -0.729301792 -0.129814858 0 0 0 0
 12858750 0.099626246 -0.296635328 -0.729584176 -0.128602036 0 0 0 0
 12875166 0.099384208 -0.29630356 -0.729903568 -0.127403434 0 0 0 0
 12891583 0.09908979 -0.296096584 -0.730219472 -0.126187642 0 0 0 0
 12908000 0.09883487 -0.295904992 -0.730529328 -0.125130526 0 0 0 0
 12924416 0.098627462 -0.295652216 -0.730805536 -0.123921854 0 0 0 0
 12940833 0.098352434 -0.29546408 -0.731117696 -0.122695094 0 0 0 0
 12957250 0.098090906 -0.295252032 -0.731377664 -0.121583842 0 0 0 0
 12973666 0.097863964 -0.294964904 -0.731707648 -0.120405156 0 0 0 0
 12990083 0.097533164 -0.29469788 -0.732013184 -0.119206414 0 0 0 0
 13006500 0.09729839 -0.294509536 -0.732311904 -0.118052272 0 0 0 0
 13022916 0.097030642 -0.294309112 -0.73263184 -0.116880126 0 0 0 0
 13039333 0.096844632 -0.294032992 -0.732854944 -0.11570801 0 0 0 0
 13055750 0.09654776 -0.293825072 -0.73311368 -0.114604672 0 0 0 0
 13072166 0.09629366 -0.293563224 -0.733420576 -0.11338881 0 0 0 0
 13088583 0.096053532 -0.293378072 -0.73371104 -0.112210024 0 0 0 0
 13105000 0.09575994 -0.293155296 -0.734002032 -0.111061906 0 0 0 0
 13121416 0.095553122 -0.292926968 -0.734248816 -0.1099455 0 0 0 0
 13137833 0.095260748 -0.292709672 -0.734580128 -0.108785656 0 0 0 0
 13154250 0.095055682 -0.292496152 -0.734796272 -0.10761595 0 0 0 0
 13170666 0.094807166 -0.292237064 -0.73503888 -0.106437056 0 0 0 0
 13187083 0.094595426 -0.29200868 -0.73536616 -0.105304248 0 0 0 0
 13203500 0.094335794 -0.291799392 -0.735622672 -0.10411829 0 0 0 0
 13219916 0.094067854 -0.291574856 -0.735826848 -0.102953766 0 0 0 0
 13236333 0.093851712 -0.29135884 -0.736130368 -0.101827648 0 0 0 0
 13252750 0.093585248 -0.291133544 -0.736383856 -0.10064573 0 0 0 0
 13269166 0.093371144 -0.290893416 -0.736640448 -0.099483842 0 0 0 0
 13285583 0.093119622 -0.290664424 -0.736875264 -0.098349166 0 0 0 0
 13302000 0.09279517 -0.290432216 -0.737139024 -0.097173446 0 0 0 0
 13318416 0.092606128 -0.290201056 -0.737389296 -0.096059144 0 0 0 0
 13334833 0.092357228 -0.289968312 -0.737611936 -0.094864416 0 0 0 0
 13351250 0.092085942 -0.289773472 -0.737902128 -0.093735226 0 0 0 0
 13367666 0.091905284 -0.289522368 -0.73810032 -0.092591736 0 0 0 0
 13384083 0.091707248 -0.289280328 -0.738366064 -0.091437986 0 0 0 0
 13400500 0.09143836 -0.289064496 -0.738555104 -0.090265196 0 0 0 0
 13416916 0.091223434 -0.288882592 -0.738811376 -0.089067718 0 0 0 0
 13433333 0.090929636 -0.288632328 -0.739022256 -0.087982584 0 0 0 0
 13449750 0.090741734 -0.288457648 -0.739291888 -0.086853776 0 0 0 0
 13466166 0.09048277 -0.288181008 -0.739490224 -0.085681252 0 0 0 0
 13482583 0.090240728 -0.287952408 -0.739704432 -0.08454252 0 0 0 0
 13499000 0.089941168 -0.287766048 -0.7399612 -0.083400338 0 0 0 0
 13515416 0.089777664 -0.28755992 -0.740193376 -0.08226832 0 0 0 0
 13531833 0.08953659 -0.287287424 -0.740402016 -0.081165042 0 0 0 0
 13548250 0.08930254 -0.287095912 -0.740571952 -0.07995833 0 0 0 0
 13564666 0.089074382 -0.286888216 -0.740780288 -0.078848102 0 0 0 0
 13581083 0.088810218 -0.286623696 -0.741041824 -0.077738594 0 0 0 0
 13597500 0.088599402 -0.286421712 -0.741258416 -0.076571988 0 0 0 0
 13613916 0.088392284 -0.286206456 -0.741392944 -0.075441776 0 0 0 0
 13630333 0.088128006 -0.285966288 -0.741639728 -0.074262456 0 0 0 0
 13646750 0.087929874 -0.285768296 -0.741880896 -0.073167916 0 0 0 0
 13663166 0.087701478 -0.285514432 -0.742060912 -0.072048514 0 0 0 0
 13679583 0.087453288 -0.285332568 -0.742247216 -0.070861542 0 0 0 0
 13696000 0.087179088 -0.285066192 -0.74244608 -0.069783006 0 0 0 0
 13712416 0.087029364 -0.284893816 -0.742624096 -0.068616642 0 0 0 0
 13728833 0.086702356 -0.284646832 -0.742874448 -0.067515808 0 0 0 0
 13745250 0.086552468 -0.284401384 -0.743014448 -0.066339997 0 0 0 0
 13761666 0.086350872 -0.284200392 -0.743222304 -0.06522961 0 0 0 0
 13778083 0.08606929 -0.284012208 -0.743384736 -0.064156833 0 0 0 0
 13794500 0.085846838 -0.283820232 -0.74360424 -0.063008745 0 0 0 0
 13810916 0.085664514 -0.283541552 -0.743752224 -0.061833547 0 0 0 0
 13827333 0.085431296 -0.28336612 -0.743939776 -0.060723185 0 0 0 0
 13843750 0.08522905 -0.28310272 -0.744149808 -0.059575908 0 0 0 0
 13860166 0.084954286 -0.282902832 -0.744314016 -0.058485937 0 0 0 0
 13876583 0.084697634 -0.282725216 -0.744501168 -0.057340531 0 0 0 0
 13893000 0.0845071 -0.282501984 -0.74466704 -0.056221898 0 0 0 0
 13909416 0.084313426 -0.282299976 -0.7448552 -0.055088813 0 0 0 0
 13925833 0.084111364 -0.282079176 -0.744995024 -0.05400633 0 0 0 0
 13942250 0.083836456 -0.281830112 -0.745175072 -0.052833116 0 0 0 0
 13958666 0.083650102 -0.2815952 -0.745367584 -0.051775108 0 0 0 0
 13975083 0.083432158 -0.281406104 -0.745490832 -0.050626244 0 0 0 0
 13991500 0.08318991 -0.28118516 -0.745678912 -0.049497502 0 0 0 0
 14007916 0.082968942 -0.280931584 -0.745799168 -0.048444244 0 0 0 0
 14024333 0.082734034 -0.280703808 -0.745952304 -0.047278288 0 0 0 0
 14040750 0.082514494 -0.280424512 -0.746118512 -0.046186874 0 0 0 0
 14057166 0.082302324 -0.280339416 -0.746257216 -0.045025273 0 0 0 0
 14073583 0.082085088 -0.280047104 -0.746418992 -0.043935426 0 0 0 0
 14090000 0.081841752 -0.279899944 -0.7465488 -0.042845276 0 0 0 0
 14106416 0.081669726 -0.279673392 -0.746743248 -0.041729821 0 0 0 0
 14122833 0.081440886 -0.279476264 -0.746886688 -0.040618694 0 0 0 0
 14139250 0.08121316 -0.279241528 -0.746989392 -0.039519543 0 0 0 0
 14155666 0.081028796 -0.2790364 -0.74711328 -0.038408692 0 0 0 0
 14172083 0.080823196 -0.278815496 -0.7472868 -0.037278251 0 0 0 0
 14188500 0.080623714 -0.27857852 -0.747414592 -0.036158196 0 0 0 0
 14204916 0.080459524 -0.278426544 -0.747528784 -0.035039854 0 0 0 0
 14221333 0.080201264 -0.278145864 -0.747675616 -0.033925083 0 0 0 0
 14237750 0.080005558 -0.277957312 -0.747790368 -0.0328244065 0 0 0 0
 14254166 0.079780068 -0.2777446 -0.747930064 -0.0317622505 0 0 0 0
 14270583 0.07956499 -0.2775092 -0.748025056 -0.030642768 0 0 0 0
 14287000 0.079374706 -0.277298536 -0.748138672 -0.029614002 0 0 0 0
 14303416 0.07915425 -0.277110288 -0.748346912 -0.028458915 0 0 0 0
 14319833 0.078982082 -0.276927296 -0.7483856 -0.0273249405 0 0 0 0
 14336250 0.07874933 -0.276644352 -0.748532496 -0.026248899 0 0 0 0
 14352666 0.078511324 -0.276475216 -0.748694528 -0.025125835 0 0 0 0
 14369083 0.078334492 -0.276241592 -0.74873592 -0.0240530455 0 0 0 0
 14385500 0.07812078 -0.276098008 -0.748877456 -0.0229423825 0 0 0 0
 14401916 0.07786053 -0.275847792 -0.748994416 -0.0218656945 0 0 0 0
 14418333 0.077696072 -0.275678616 -0.749105712 -0.020723124 0 0 0 0
 14434750 0.07746227 -0.275407064 -0.749197872 -0.0196602585 0 0 0 0
 14451166 0.077278502 -0.275276288 -0.749280496 -0.0185603165 0 0 0 0
 14467583 0.077091522 -0.275009744 -0.749461616 -0.0174737015 0 0 0 0
 14484000 0.076850836 -0.274794104 -0.749483424 -0.0164128475 0 0 0 0
 14500416 0.076680066 -0.27460676 -0.749674192 -0.0153131487 0 0 0 0
 14516833 0.076392278 -0.274413928 -0.749749072 -0.0142485328 0 0 0 0
 14533250 0.076288066 -0.274204888 -0.74977824 -0.01310245 0 0 0 0
 14549666 0.076073382 -0.273929832 -0.749923696 -0.0120410875 0 0 0 0
 14566083 0.075858512 -0.273773288 -0.75000504 -0.0109621085 0 0 0 0
 14582500 0.075645802 -0.273522024 -0.750080848 -0.009876784 0 0 0 0
 14598916 0.075433906 -0.273378264 -0.75016528 -0.0087453605 0 0 0 0
 14615333 0.075267888 -0.273091824 -0.750259536 -0.00770477375 0 0 0 0
 14631750 0.075088262 -0.272953608 -0.7503708 -0.00658852375 0 0 0 0
 14648166 0.074872772 -0.272747008 -0.750457056 -0.0055502465 0 0 0 0
 14664583 0.074702192 -0.272534032 -0.750514736 -0.0044955695 0 0 0 0
 14681000 0.07453823 -0.272286856 -0.750611936 -0.00338518275 0 0 0 0
 14697416 0.074299058 -0.272074128 -0.75069232 -0.0023396375 0 0 0 0
 14713833 0.074084748 -0.271852728 -0.750742032 -0.00121000775 0 0 0 0
 14730250 0.073897412 -0.271638976 -0.750859024 -0.00015343125 0 0 0 0
 14746666 0.073672012 -0.271486848 -0.750938192 0.00097958675 0 0 0 0
 14763083 0.073483128 -0.271279464 -0.751002272 0.00199143975 0 0 0 0
 14779500 0.073284904 -0.271064232 -0.751086208 0.00312736475 0 0 0 0
 14795916 0.073103546 -0.27079252 -0.751119984 0.00416306275 0 0 0 0
 14812333 0.072882728 -0.270716896 -0.75120688 0.005234047 0 0 0 0
 14828750 0.072710554 -0.270416976 -0.751235232 0.00633051475 0 0 0 0
 14845166 0.07250239 -0.270252104 -0.75129976 0.007392787 0 0 0 0
 14861583 0.072296334 -0.270011976 -0.751381328 0.008486412 0 0 0 0
 14878000 0.072097164 -0.26981152 -0.751419584 0.00947489225 0 0 0 0
 14894416 0.072015312 -0.269639664 -0.751524944 0.0106364082 0 0 0 0
 14910833 0.071717734 -0.269357896 -0.75155592 0.0116301598 0 0 0 0
 14927250 0.071580312 -0.269218336 -0.751621056 0.0127070662 0 0 0 0
 14943666 0.071373666 -0.268952848 -0.751686928 0.0137883903 0 0 0 0
 14960083 0.071202644 -0.268861152 -0.751717536 0.0148612225 0 0 0 0
 14976500 0.070969778 -0.26861976 -0.75175952 0.015942102 0 0 0 0
 14992916 0.070799878 -0.268455024 -0.751843632 0.01701726 0 0 0 0
 15009333 0.07063666 -0.268212244 -0.751879648 0.0180730295 0 0 0 0
 15025750 0.070392516 -0.26804884 -0.751906576 0.0191459095 0 0 0 0
 15042166 0.070253628 -0.267755456 -0.751950832 0.0201992205 0 0 0 0
 15058583 0.07007164 -0.267605268 -0.752001504 0.021216375 0 0 0 0
 15075000 0.069883056 -0.267366784 -0.7520796 0.022264863 0 0 0 0
 15091416 0.069674156 -0.267182268 -0.75208832 0.023354501 0 0 0 0
 15107833 0.069513058 -0.266944832 -0.752123936 0.0243981265 0 0 0 0
 15124250 0.069328492 -0.26681218 -0.752158 0.025469479 0 0 0 0
 15140666 0.069151302 -0.266607396 -0.752195616 0.0265630055 0 0 0 0
 15157083 0.068998908 -0.26635392 -0.752247424 0.027543461 0 0 0 0
 15173500 0.06872502 -0.266193904 -0.752288704 0.0286144075 0 0 0 0
 15189916 0.068529532 -0.266020604 -0.752323984 0.0296861405 0 0 0 0
 15206333 0.068340662 -0.265799176 -0.75231296 0.0307487975 0 0 0 0
 15222750 0.068252884 -0.265567432 -0.752345376 0.0317798725 0 0 0 0
 15239166 0.068009494 -0.265404 -0.752355328 0.0328405485 0 0 0 0
 15255583 0.067847814 -0.2651939 -0.752358 0.033900431 0 0 0 0
 15272000 0.067615526 -0.26502072 -0.752394672 0.034935425 0 0 0 0
 15288416 0.067483008 -0.264793288 -0.752434592 0.035984332 0 0 0 0
 15304833 0.067253106 -0.264602048 -0.752444896 0.037011913 0 0 0 0
 15321250 0.067128122 -0.264404864 -0.75243832 0.038108514 0 0 0 0
 15337666 0.066917255 -0.264150708 -0.752442592 0.03911126 0 0 0 0
 15354083 0.066739052 -0.263982096 -0.752454512 0.040179097 0 0 0 0
 15370500 0.066560034 -0.263765908 -0.752549504 0.041232491 0 0 0 0
 15386916 0.066355204 -0.26360904 -0.752481728 0.042273667 0 0 0 0
 15403333 0.066162722 -0.263421944 -0.752527344 0.043299625 0 0 0 0
 15419750 0.06601249 -0.263210072 -0.752545408 0.044306751 0 0 0 0
 15436166 0.065879757 -0.26299956 -0.752470784 0.045386214 0 0 0 0
 15452583 0.065688529 -0.26280106 -0.752508624 0.046420789 0 0 0 0
 15469000 0.06549155 -0.262596948 -0.752564688 0.047431253 0 0 0 0
 15485416 0.065369065 -0.26240146 -0.752478096 0.048499538 0 0 0 0
 15501833 0.065167223 -0.262213508 -0.75251296 0.049545999 0 0 0 0
 15518250 0.06498445 -0.262060784 -0.75256232 0.050518599 0 0 0 0
 15534666 0.064803563 -0.261855788 -0.752524656 0.05163897 0 0 0 0
 15551083 0.064605357 -0.261672964 -0.752529168 0.052626287 0 0 0 0
 15567500 0.064453879 -0.261439112 -0.752436816 0.05371184 0 0 0 0
 15583916 0.064314608 -0.261237232 -0.75250856 0.05466689 0 0 0 0
 15600333 0.064115932 -0.26108792 -0.752558112 0.055724961 0 0 0 0
 15616750 0.063913739 -0.260850412 -0.752473632 0.056778473 0 0 0 0
 15633166 0.063776935 -0.260683656 -0.752478128 0.057807312 0 0 0 0
 15649583 0.063547863 -0.260486924 -0.752483728 0.058798448 0 0 0 0
 15666000 0.063428752 -0.26028852 -0.752474592 0.059817979 0 0 0 0
 15682416 0.063221955 -0.260096104 -0.75242768 0.060929292 0 0 0 0
 15698833 0.063078989 -0.259877932 -0.752423376 0.061892006 0 0 0 0
 15715250 0.062939176 -0.259727672 -0.752390912 0.062942713 0 0 0 0
 15731666 0.062737907 -0.259484444 -0.75233536 0.063941091 0 0 0 0
 15748083 0.062553399 -0.259312132 -0.752312352 0.065022272 0 0 0 0
 15764500 0.062436774 -0.259103784 -0.752320192 0.065985927 0 0 0 0
 15780916 0.062246784 -0.258951944 -0.75227088 0.066979495 0 0 0 0
 15797333 0.062071443 -0.258784128 -0.752224896 0.068057198 0 0 0 0
 15813750 0.061856774 -0.258571192 -0.752205424 0.069078396 0 0 0 0
 15830166 0.061647451 -0.258363696 -0.752200624 0.070096544 0 0 0 0
 15846583 0.061485776 -0.258144808 -0.752146064 0.071069472 0 0 0 0
 15863000 0.061389966 -0.257990112 -0.75210456 0.072171038 0 0 0 0
 15879416 0.06118509 -0.257750072 -0.75208768 0.073138816 0 0 0 0
 15895833 0.061104142 -0.257591428 -0.752059568 0.074190908 0 0 0 0
 15912250 0.060878205 -0.257326832 -0.751973248 0.075199112 0 0 0 0
 15928666 0.060705451 -0.257182336 -0.751962768 0.076204448 0 0 0 0
 15945083 0.060614395 -0.25699884 -0.75197424 0.077227802 0 0 0 0
 15961500 0.060362642 -0.256804548 -0.75187448 0.07821381 0 0 0 0
 15977916 0.060225639 -0.256623224 -0.751856496 0.07924268 0 0 0 0
 15994333 0.060042519 -0.256428064 -0.751775136 0.08028474 0 0 0 0
 16010750 0.059936026 -0.256231536 -0.751725408 0.081280536 0 0 0 0
 16027166 0.059764984 -0.256055628 -0.751680752 0.082253536 0 0 0 0
 16043583 0.059656443 -0.255862292 -0.75169152 0.08327385 0 0 0 0
 16060000 0.059393892 -0.2557058 -0.751578592 0.084255182 0 0 0 0
 16076416 0.059264871 -0.255473508 -0.75159296 0.085332348 0 0 0 0
 16092833 0.059108964 -0.255288064 -0.75151552 0.086318274 0 0 0 0
 16109250 0.058945116 -0.255074444 -0.751462128 0.087297272 0 0 0 0
 16125666 0.05874882 -0.254987568 -0.751403216 0.088287466 0 0 0 0
 16142083 0.058607086 -0.254751748 -0.75131816 0.089316906 0 0 0 0
 16158500 0.058438854 -0.254555092 -0.75127208 0.09036112 0 0 0 0
 16174916 0.058277989 -0.254374036 -0.751175072 0.091316468 0 0 0 0
 16191333 0.058153127 -0.254193716 -0.751189968 0.092317342 0 0 0 0
 16207750 0.057951157 -0.253996008 -0.751048848 0.09328143 0 0 0 0
 16224166 0.057757592 -0.253859268 -0.750993904 0.094317752 0 0 0 0
 16240583 0.057640742 -0.253691492 -0.750941136 0.09530359 0 0 0 0
 16257000 0.057479582 -0.253490164 -0.750883456 0.096309176 0 0 0 0
 16273416 0.057343896 -0.253272732 -0.7508136 0.097266714 0 0 0 0
 16289833 0.057164495 -0.253033472 -0.75076888 0.098277986 0 0 0 0
 16306250 0.057035161 -0.252902424 -0.75066872 0.099244846 0 0 0 0
 16322666 0.056870138 -0.252702568 -0.750599728 0.10033029 0 0 0 0
 16339083 0.056711005 -0.252472752 -0.750539264 0.101291198 0 0 0 0
 16355500 0.056513401 -0.252320672 -0.750437472 0.102303384 0 0 0 0
 16371916 0.056418646 -0.252176828 -0.750372816 0.103254118 0 0 0 0
 16388333 0.056189915 -0.25194452 -0.750233056 0.104263804 0 0 0 0
 16404750 0.056072968 -0.251841084 -0.750224 0.10527052 0 0 0 0
 16421166 0.055910876 -0.251594088 -0.750127872 0.10625322 0 0 0 0
 16437583 0.055748576 -0.251415276 -0.750010512 0.10727355 0 0 0 0
 16454000 0.055561134 -0.25129078 -0.74997032 0.108168032 0 0 0 0
 16470416 0.055454556 -0.251083472 -0.749857584 0.10916794 0 0 0 0
 16486833 0.055316377 -0.250902608 -0.749818848 0.110160004 0 0 0 0
 16503250 0.055170135 -0.2507651 -0.749686432 0.111180304 0 0 0 0
 16519666 0.054981511 -0.250482504 -0.74962264 0.112160076 0 0 0 0
 16536083 0.054861936 -0.250330916 -0.749513216 0.113174724 0 0 0 0
 16552500 0.054694963 -0.250100776 -0.74942656 0.114109316 0 0 0 0
 16568916 0.054498255 -0.249985492 -0.74928768 0.115112206 0 0 0 0
 16585333 0.054335994 -0.249813284 -0.749190896 0.116079946 0 0 0 0
 16601750 0.054272569 -0.24959742 -0.749110272 0.117058946 0 0 0 0
 16618166 0.054081939 -0.24943812 -0.748988752 0.118019804 0 0 0 0
 16634583 0.053949065 -0.249296512 -0.748933792 0.11901198 0 0 0 0
 16651000 0.05377691 -0.249083152 -0.748774928 0.120006918 0 0 0 0
 16667416 0.053689207 -0.248860096 -0.748726192 0.12094115 0 0 0 0
 16683833 0.053482924 -0.248719688 -0.748634464 0.121895946 0 0 0 0
 16700250 0.053375015 -0.248533688 -0.748515936 0.122935876 0 0 0 0
 16716667 0.053205038 -0.24837734 -0.748372992 0.123925922 0 0 0 0
 16733083 0.053067673 -0.248165632 -0.748304064 0.124845092 0 0 0 0
 16749500 0.052857802 -0.247972116 -0.748211856 0.125819284 0 0 0 0
 16765917 0.052748185 -0.247841508 -0.74811296 0.126780676 0 0 0 0
 16782333 0.052598612 -0.24766092 -0.74796456 0.127757606 0 0 0 0
 16798750 0.052486799 -0.247489672 -0.74786344 0.128739376 0 0 0 0
 16815167 0.052374906 -0.247265724 -0.747780848 0.129731106 0 0 0 0
 16831583 0.052175473 -0.247099388 -0.747664592 0.1306611 0 0 0 0
 16848000 0.052053773 -0.246914352 -0.747516768 0.131688358 0 0 0 0
 16864417 0.051876601 -0.246742772 -0.747420416 0.132576128 0 0 0 0
 16880833 0.05178372 -0.246524836 -0.747304832 0.133590224 0 0 0 0
 16897250 0.051523953 -0.246358888 -0.747193536 0.134522372 0 0 0 0
 16913667 0.051458019 -0.246187792 -0.74709848 0.135556648 0 0 0 0
 16930083 0.051258671 -0.246006372 -0.746907568 0.136498308 0 0 0 0
 16946500 0.051150164 -0.24593424 -0.7468236 0.137437628 0 0 0 0
 16962917 0.050987574 -0.245680396 -0.746705488 0.138348648 0 0 0 0
 16979333 0.050854906 -0.2455228 -0.746571968 0.139388164 0 0 0 0
 16995750 0.050670775 -0.245320012 -0.746465136 0.140324544 0 0 0 0
 17012167 0.050534013 -0.245142536 -0.746326256 0.141277552 0 0 0 0
 17028583 0.050422999 -0.2449913 -0.746193424 0.142184484 0 0 0 0
 17045000 0.050268364 -0.244827404 -0.746048944 0.143193884 0 0 0 0
 17061417 0.050150787 -0.244593376 -0.74591208 0.144151484 0 0 0 0
 17077833 0.049977496 -0.24444104 -0.745758016 0.145111624 0 0 0 0
 17094250 0.049878233 -0.244274244 -0.745662688 0.146058116 0 0 0 0
 17110667 0.049715355 -0.244080992 -0.745504432 0.146991816 0 0 0 0
 17127083 0.049582458 -0.243900648 -0.745388576 0.147962916 0 0 0 0
 17143500 0.049407675 -0.243729712 -0.745250144 0.14891244 0 0 0 0
 17159917 0.049325474 -0.24361022 -0.745089952 0.149886988 0 0 0 0
 17176333 0.049126422 -0.243312216 -0.744934192 0.150828796 0 0 0 0
 17192750 0.049022475 -0.24321924 -0.744827232 0.151781884 0 0 0 0
 17209167 0.048900988 -0.24300368 -0.744721648 0.152692512 0 0 0 0
 17225583 0.048741943 -0.242893604 -0.744492784 0.153640596 0 0 0 0
 17242000 0.048638173 -0.242662104 -0.744412208 0.15459402 0 0 0 0
 17258417 0.048417842 -0.242566 -0.74423832 0.155499968 0 0 0 0
 17274833 0.048324962 -0.2423636 -0.74409488 0.156452416 0 0 0 0
 17291250 0.048122812 -0.24215604 -0.743952848 0.157427636 0 0 0 0
 17307667 0.048040322 -0.24203678 -0.743804336 0.158437468 0 0 0 0
 17324083 0.047920025 -0.241789408 -0.743670416 0.159335912 0 0 0 0
 17340500 0.047777564 -0.241656752 -0.7435044 0.16027448 0 0 0 0
 17356917 0.047702868 -0.241472368 -0.743319568 0.161171004 0 0 0 0
 17373333 0.047534242 -0.241377372 -0.743237392 0.162169268 0 0 0 0
 17389750 0.047412897 -0.241131764 -0.743057632 0.163085128 0 0 0 0
 17406167 0.047276227 -0.240999872 -0.742852848 0.163972628 0 0 0 0
 17422583 0.047138593 -0.240813128 -0.74276112 0.164984856 0 0 0 0
 17439000 0.046975996 -0.240657532 -0.742633536 0.16591848 0 0 0 0
 17455417 0.046840186 -0.240508688 -0.7424348 0.166877352 0 0 0 0
 17471833 0.046701097 -0.240314024 -0.74223968 0.167752828 0 0 0 0
 17488250 0.046580374 -0.240117912 -0.742127376 0.168726756 0 0 0 0
 17504667 0.046431084 -0.239968848 -0.741973536 0.169640468 0 0 0 0
 17521083 0.04627751 -0.239788972 -0.741814448 0.170583376 0 0 0 0
 17537500 0.046162045 -0.239589344 -0.741580384 0.171501444 0 0 0 0
 17553917 0.045995767 -0.239474124 -0.741440144 0.172433236 0 0 0 0
 17570333 0.045915483 -0.239256072 -0.74128384 0.173368064 0 0 0 0
 17586750 0.045760197 -0.239124644 -0.74110024 0.17432392 0 0 0 0
 17603167 0.045686881 -0.238992512 -0.740908864 0.175209684 0 0 0 0
 17619583 0.045520312 -0.238745604 -0.74074304 0.176141912 0 0 0 0
 17636000 0.045442894 -0.238602456 -0.740614896 0.177085224 0 0 0 0
 17652417 0.045176248 -0.238419628 -0.74042936 0.177973696 0 0 0 0
 17668833 0.045128721 -0.238258412 -0.7402596 0.178950032 0 0 0 0
 17685250 0.044970703 -0.238072436 -0.740079696 0.179823544 0 0 0 0
 17701667 0.044871277 -0.237975756 -0.739873616 0.180807564 0 0 0 0
 17718083 0.044733312 -0.237782824 -0.73971328 0.181676024 0 0 0 0
 17734500 0.04457938 -0.237620556 -0.739562848 0.18267314 0 0 0 0
 17750917 0.044480625 -0.237438016 -0.7393576 0.183556476 0 0 0 0
 17767333 0.044333062 -0.237285848 -0.739193584 0.184474688 0 0 0 0
 17783750 0.044210155 -0.237041876 -0.739035552 0.185355952 0 0 0 0
 17800167 0.04402137 -0.236898372 -0.73879904 0.186265792 0 0 0 0
 17816583 0.043912473 -0.236737792 -0.73861744 0.187212552 0 0 0 0
 17833000 0.043807738 -0.236574484 -0.738404 0.188122824 0 0 0 0
 17849417 0.043674996 -0.236403844 -0.738299376 0.189133496 0 0 0 0
 17865833 0.043580308 -0.236269656 -0.738052496 0.189905528 0 0 0 0
 17882250 0.043413702 -0.236123952 -0.737939536 0.190909652 0 0 0 0
 17898667 0.043285537 -0.235897624 -0.737719264 0.191764752 0 0 0 0
 17915083 0.043176094 -0.235765816 -0.737539872 0.192693116 0 0 0 0
 17931500 0.043035618 -0.235613328 -0.737318992 0.193607716 0 0 0 0
 17947917 0.04289904 -0.235440148 -0.737084192 0.194525332 0 0 0 0
 17964333 0.042825481 -0.235234108 -0.736936576 0.195434368 0 0 0 0
 17980750 0.042616226 -0.235101132 -0.736746048 0.196374648 0 0 0 0
 17997167 0.042530431 -0.234952968 -0.736549648 0.197282068 0 0 0 0
 18013583 0.042380147 -0.234722804 -0.736329712 0.198147188 0 0 0 0
 18030000 0.04225079 -0.234626968 -0.736131696 0.19906546 0 0 0 0
 18046417 0.042139828 -0.2344255 -0.736002672 0.199960312 0 0 0 0
 18062833 0.042053657 -0.234288256 -0.735755872 0.200889636 0 0 0 0
 18079250 0.041896884 -0.234110824 -0.735544096 0.20178696 0 0 0 0
 18095667 0.041829935 -0.233976596 -0.73529648 0.202726104 0 0 0 0
 18112083 0.041657021 -0.233787116 -0.73510272 0.203566692 0 0 0 0
 18128500 0.041567878 -0.233699328 -0.734930672 0.204505784 0 0 0 0
 18144917 0.041454335 -0.233524992 -0.734736816 0.2053879 0 0 0 0
 18161333 0.041242856 -0.233354756 -0.734563728 0.20626644 0 0 0 0
 18177750 0.041176317 -0.23310932 -0.734393728 0.20723578 0 0 0 0
 18194167 0.041032757 -0.233016064 -0.73409096 0.208081864 0 0 0 0
 18210583 0.040954869 -0.232833448 -0.733924864 0.209005088 0 0 0 0
 18227000 0.040872904 -0.232654332 -0.733721376 0.209887764 0 0 0 0
 18243417 0.040697084 -0.232451584 -0.733480944 0.210796848 0 0 0 0
 18259833 0.040590808 -0.232273524 -0.733307056 0.211690328 0 0 0 0
 18276250 0.040419191 -0.232201716 -0.733059408 0.212615032 0 0 0 0
 18292667 0.040326395 -0.231990044 -0.732878256 0.213476828 0 0 0 0
 18309083 0.040190239 -0.231847864 -0.732594816 0.214374308 0 0 0 0
 18325500 0.04008442 -0.23168364 -0.732433952 0.215318712 0 0 0 0
 18341917 0.039938443 -0.231551708 -0.7321832 0.216159864 0 0 0 0
 18358333 0.039859587 -0.23137378 -0.731994816 0.217071052 0 0 0 0
 18374750 0.039713708 -0.231234596 -0.73178 0.217932104 0 0 0 0
 18391167 0.039621627 -0.23109244 -0.73161432 0.218850564 0 0 0 0
 18407583 0.03948727 -0.230876992 -0.731392672 0.219687304 0 0 0 0
 18424000 0.03937718 -0.230725468 -0.731130624 0.220611944 0 0 0 0
 18440417 0.039256776 -0.23056182 -0.730908816 0.221423936 0 0 0 0
 18456833 0.03910126 -0.230408896 -0.730668128 0.222346656 0 0 0 0
 18473250 0.038988388 -0.230243492 -0.730482816 0.223252608 0 0 0 0
 18489667 0.038874254 -0.230111092 -0.730192048 0.224136708 0 0 0 0
 18506083 0.038795722 -0.229923348 -0.729961808 0.225069644 0 0 0 0
 18522500 0.038686227 -0.229771184 -0.729799536 0.225873476 0 0 0 0
 18538917 0.038565364 -0.229677936 -0.729566576 0.226793088 0 0 0 0
 18555333 0.03840067 -0.2294847 -0.729263904 0.22767274 0 0 0 0
 18571750 0.038333315 -0.229305264 -0.729107344 0.228527288 0 0 0 0
 18588167 0.038182277 -0.229165336 -0.728857584 0.229431332 0 0 0 0
 18604583 0.038010142 -0.229004804 -0.728634128 0.230338072 0 0 0 0
 18621000 0.037946294 -0.2288468 -0.728425152 0.231193332 0 0 0 0
 18637417 0.037783709 -0.228704788 -0.728170832 0.2320413 0 0 0 0
 18653833 0.037740267 -0.228456752 -0.727903936 0.232939168 0 0 0 0
 18670250 0.037561247 -0.228345876 -0.72764296 0.233798636 0 0 0 0
 18686667 0.037437067 -0.228218212 -0.727457344 0.234688612 0 0 0 0
 18703083 0.037332868 -0.228086608 -0.727162832 0.235524444 0 0 0 0
 18719500 0.037252679 -0.227917672 -0.727012304 0.236448512 0 0 0 0
 18735917 0.037182723 -0.227798224 -0.726700928 0.237306644 0 0 0 0
 18752333 0.037023163 -0.227640072 -0.72648344 0.238124928 0 0 0 0
 18768750 0.036886112 -0.22738616 -0.72623584 0.239025708 0 0 0 0
 18785167 0.036755483 -0.227275992 -0.726004928 0.239909776 0 0 0 0
 18801583 0.036669082 -0.227081912 -0.725760768 0.240714952 0 0 0 0
 18818000 0.036532139 -0.226977316 -0.725471808 0.241611504 0 0 0 0
 18834417 0.036411398 -0.226804124 -0.725254096 0.242487444 0 0 0 0
 18850833 0.036294115 -0.226678164 -0.724962192 0.243320436 0 0 0 0
 18867250 0.036196061 -0.226504912 -0.724769904 0.244225408 0 0 0 0
 18883667 0.036103603 -0.226380048 -0.72451224 0.245100464 0 0 0 0
 18900083 0.035988237 -0.2262181 -0.724303328 0.245967136 0 0 0 0
 18916500 0.035875812 -0.226071108 -0.724015936 0.246800928 0 0 0 0
 18932917 0.035775527 -0.225956104 -0.723756864 0.247637848 0 0 0 0
 18949333 0.035596647 -0.225729112 -0.723513968 0.248503044 0 0 0 0
 18965750 0.035521774 -0.225607088 -0.72328328 0.24939504 0 0 0 0
 18982167 0.035371837 -0.225431148 -0.723000288 0.250223592 0 0 0 0
 18998583 0.035242611 -0.225294176 -0.722737424 0.251089944 0 0 0 0
 19015000 0.035184147 -0.225126728 -0.72250896 0.251965848 0 0 0 0
 19031417 0.035041179 -0.224997904 -0.722178352 0.252803224 0 0 0 0
 19047833 0.034968978 -0.224805936 -0.721972976 0.253651956 0 0 0 0
 19064250 0.034784527 -0.224719196 -0.721700128 0.25447888 0 0 0 0
 19080667 0.034782874 -0.22453894 -0.7214356 0.25539888 0 0 0 0
 19097083 0.034624028 -0.224380656 -0.721183552 0.25622474 0 0 0 0
 19113500 0.034523636 -0.224267416 -0.720906192 0.257092304 0 0 0 0
 19129917 0.034446848 -0.2240787 -0.720663744 0.25786614 0 0 0 0
 19146333 0.034300958 -0.223959088 -0.72039968 0.2587838 0 0 0 0
 19162750 0.034142645 -0.223779452 -0.720155296 0.259592832 0 0 0 0
 19179167 0.034106057 -0.223610888 -0.719835248 0.260462708 0 0 0 0
 19195583 0.033988658 -0.223415904 -0.71959544 0.261323572 0 0 0 0
 19212000 0.033851687 -0.22330448 -0.719299408 0.262165604 0 0 0 0
 19228417 0.033754689 -0.223172052 -0.719055968 0.26300984 0 0 0 0
 19244833 0.033617912 -0.222964184 -0.718773936 0.263813876 0 0 0 0
 19261250 0.0335086645 -0.222868028 -0.718528896 0.264704564 0 0 0 0
 19277667 0.033382357 -0.22265548 -0.718208704 0.265533212 0 0 0 0
 19294083 0.033255307 -0.222569004 -0.717968672 0.266353156 0 0 0 0
 19310500 0.0331827785 -0.2224049 -0.717629456 0.267156244 0 0 0 0
 19326917 0.0331110305 -0.22223152 -0.71739272 0.2680822 0 0 0 0
 19343333 0.0329894195 -0.22210988 -0.717120048 0.268854312 0 0 0 0
 19359750 0.0328792505 -0.221993232 -0.716813056 0.269747296 0 0 0 0
 19376167 0.0328058435 -0.221785136 -0.716557984 0.270596152 0 0 0 0
 19392583 0.0326561665 -0.221686616 -0.716278752 0.271473392 0 0 0 0
 19409000 0.0325478245 -0.221500284 -0.71601416 0.27223444 0 0 0 0
 19425417 0.0324590475 -0.221391292 -0.715724912 0.273076056 0 0 0 0
 19441833 0.0323815115 -0.221240476 -0.71548064 0.273981632 0 0 0 0
 19458250 0.0322023955 -0.2211105 -0.715142816 0.274778536 0 0 0 0
 19474667 0.0321110705 -0.220962728 -0.714900688 0.275602664 0 0 0 0
 19491083 0.032008425 -0.220775016 -0.714558416 0.276465496 0 0 0 0
 19507500 0.0319620285 -0.220672264 -0.71429824 0.27729224 0 0 0 0
 19523917 0.031811054 -0.220471092 -0.714006112 0.278133904 0 0 0 0
 19540333 0.0316740475 -0.220371232 -0.713668736 0.278970688 0 0 0 0
 19556750 0.031618879 -0.220178976 -0.713431408 0.27975416 0 0 0 0
 19573167 0.0314735115 -0.2200622 -0.713167488 0.280581232 0 0 0 0
 19589583 0.031427577 -0.219889184 -0.712884384 0.28143036 0 0 0 0
 19606000 0.031336089 -0.219740788 -0.712530304 0.282249176 0 0 0 0
 19622417 0.031210976 -0.219631728 -0.712276512 0.283130872 0 0 0 0
 19638833 0.031045465 -0.219435408 -0.711990256 0.28393724 0 0 0 0
 19655250 0.03099895 -0.219343808 -0.711682432 0.28475348 0 0 0 0
 19671667 0.0308362615 -0.219143376 -0.711394416 0.285556424 0 0 0 0
 19688083 0.0307662935 -0.21900634 -0.711080784 0.28640712 0 0 0 0
 19704500 0.03063859 -0.21888752 -0.710827968 0.287239816 0 0 0 0
 19720917 0.0305496145 -0.218718872 -0.710491072 0.288079552 0 0 0 0
 19737333 0.0304857735 -0.21854908 -0.710195936 0.288846624 0 0 0 0
 19753750 0.0303880115 -0.218419472 -0.709926512 0.2896858 0 0 0 0
 19770167 0.0302329775 -0.218254592 -0.709589472 0.29051812 0 0 0 0
 19786583 0.030099888 -0.218143316 -0.709306896 0.291332712 0 0 0 0
 19803000 0.029993397 -0.218020624 -0.709026624 0.292155216 0 0 0 0
 19819417 0.0299303655 -0.217868304 -0.708689392 0.292965072 0 0 0 0
 19835833 0.029821254 -0.217739076 -0.708405856 0.293793128 0 0 0 0
 19852250 0.0297100855 -0.217608312 -0.708117456 0.294618192 0 0 0 0
 19868667 0.0296242535 -0.21742724 -0.707788 0.295441368 0 0 0 0
 19885083 0.0295135905 -0.217279416 -0.707559312 0.296201424 0 0 0 0
 19901500 0.0294923645 -0.217142488 -0.707223088 0.297053272 0 0 0 0
 19917917 0.0293875215 -0.216930324 -0.706859392 0.29787984 0 0 0 0
 19934333 0.029270985 -0.216830976 -0.706553856 0.298690264 0 0 0 0
 19950750 0.0291391045 -0.21667376 -0.706284272 0.299453536 0 0 0 0
 19967167 0.0290763115 -0.216571828 -0.705948896 0.300329328 0 0 0 0
 19983583 0.028980734 -0.216492704 -0.705672096 0.301129024 0 0 0 0
 20000000 0.028836863 -0.216298252 -0.705363648 0.30194744 0 0 0 0
