! vnafit live capture, 2-section helical
! device: NanoVNA-H4 over USB CDC
! span 100-200 MHz, 2 segments x 401, 6 averages, IF bw code 1
! S12/S22 not measured by this instrument; written as zero
# Hz S RI R 50
 100000000 -0.302007515 0.946949856 0.000272284 -8.91746667e-05 0 0 0 0
 100125000 -0.299650901 0.947404576 0.000238321 -0.000119211833 0 0 0 0
 100250000 -0.298606352 0.947848395 0.000197354 -0.000116617167 0 0 0 0
 100375000 -0.29721072 0.948306752 0.000118689167 -0.0001394005 0 0 0 0
 100500000 -0.29595664 0.948745291 0.0001427155 -0.000119909667 0 0 0 0
 100625000 -0.294608832 0.949084683 0.000231116667 -0.000122804667 0 0 0 0
 100750000 -0.293318949 0.949434208 0.000274079 -0.0001214455 0 0 0 0
 100875000 -0.29217776 0.949952597 0.000303579667 -0.0001401365 0 0 0 0
 101000000 -0.290816848 0.950420917 0.000294483833 -0.000158725167 0 0 0 0
 101125000 -0.289497253 0.950748469 0.000244163667 -0.000162839333 0 0 0 0
 101250000 -0.288235179 0.951135307 0.000166134833 -0.000156245 0 0 0 0
 101375000 -0.286917952 0.951652491 9.68971667e-05 -0.0001634545 0 0 0 0
 101500000 -0.285676235 0.951978432 0.000118076167 -0.000167538833 0 0 0 0
 101625000 -0.28437336 0.952323147 0.000158747667 -0.000192112 0 0 0 0
 101750000 -0.283035083 0.952746507 0.000196923333 -0.000182608333 0 0 0 0
 101875000 -0.281885899 0.953140853 0.000221991667 -0.000205633333 0 0 0 0
 102000000 -0.280726213 0.953635883 0.000247295667 -0.0001882305 0 0 0 0
 102125000 -0.279406416 0.954031477 0.000269270333 -0.000189094167 0 0 0 0
 102250000 -0.278082027 0.954322699 0.0002582535 -0.000197276833 0 0 0 0
 102375000 -0.276748261 0.954771883 0.000283466333 -0.000195391167 0 0 0 0
 102500000 -0.275478347 0.955133803 0.000284841333 -0.000197591833 0 0 0 0
 102625000 -0.274202485 0.955577845 0.000312356333 -0.000177610333 0 0 0 0
 102750000 -0.272872992 0.955928384 0.000310200667 -0.000220647667 0 0 0 0
 102875000 -0.271687248 0.956350901 0.0002929675 -0.0002112515 0 0 0 0
 103000000 -0.27041576 0.956841013 0.0003047625 -0.000204870667 0 0 0 0
 103125000 -0.269206843 0.957076971 0.000292578833 -0.000211106167 0 0 0 0
 103250000 -0.267975667 0.957588896 0.0003022525 -0.000222731 0 0 0 0
 103375000 -0.266761003 0.957797963 0.000308811333 -0.000227440833 0 0 0 0
 103500000 -0.265471672 0.95825488 0.000298110833 -0.000229103333 0 0 0 0
 103625000 -0.264203917 0.958526304 0.000311257 -0.000228668833 0 0 0 0
 103750000 -0.262985381 0.958988981 0.000308237833 -0.0002117755 0 0 0 0
 103875000 -0.261568467 0.959243616 0.000355714833 -0.000211192 0 0 0 0
 104000000 -0.260194413 0.959828864 0.000327448667 -0.000247986667 0 0 0 0
 104125000 -0.259081064 0.960030389 0.000348105167 -0.0002157805 0 0 0 0
 104250000 -0.257817373 0.96041776 0.000385681 -0.000182826167 0 0 0 0
 104375000 -0.256608016 0.960800128 0.000389674 -0.000191965667 0 0 0 0
 104500000 -0.255246029 0.961194464 0.000403653833 -0.000219658167 0 0 0 0
 104625000 -0.253940883 0.96148912 0.000426038333 -0.000207982833 0 0 0 0
 104750000 -0.25260556 0.961947733 0.000433512833 -0.000199652833 0 0 0 0
 104875000 -0.251173843 0.962126752 0.000441293833 -0.000212483833 0 0 0 0
 105000000 -0.249784741 0.962619552 0.000439359667 -0.0001994585 0 0 0 0
 105125000 -0.248376624 0.962868149 0.0004588205 -0.0002022235 0 0 0 0
 105250000 -0.247249976 0.963236587 0.000443156333 -0.00018757 0 0 0 0
 105375000 -0.245838749 0.963460672 0.000436795 -0.000189561167 0 0 0 0
 105500000 -0.244560475 0.963796053 0.000462678333 -0.000179069167 0 0 0 0
 105625000 -0.243216285 0.964174283 0.000485085667 -0.000181030667 0 0 0 0
 105750000 -0.242006611 0.9644648 0.000479658833 -0.000184587167 0 0 0 0
 105875000 -0.240785728 0.964796629 0.000461483833 -0.000162543167 0 0 0 0
 106000000 -0.239373435 0.965189856 0.0005034755 -0.000171153833 0 0 0 0
 106125000 -0.238191411 0.965495563 0.0004878525 -0.000156347 0 0 0 0
 106250000 -0.236788635 0.965801909 0.000474783167 -0.000202707667 0 0 0 0
 106375000 -0.23567052 0.966048555 0.000505788167 -0.000201614333 0 0 0 0
 106500000 -0.234227816 0.96649952 0.0005316 -0.0002028255 0 0 0 0
 106625000 -0.233077984 0.966661035 0.000508383 -0.000201872167 0 0 0 0
 106750000 -0.231862821 0.967133312 0.000539851 -0.000210494 0 0 0 0
 106875000 -0.230485563 0.967341984 0.000520935833 -0.000221894 0 0 0 0
 107000000 -0.229066195 0.967703307 0.000505024833 -0.0002434505 0 0 0 0
 107125000 -0.227841253 0.967935861 0.000487891667 -0.000225354833 0 0 0 0
 107250000 -0.226545443 0.968290965 0.000420555333 -0.000245358 0 0 0 0
 107375000 -0.225339616 0.968619392 0.000364504333 -0.000248096667 0 0 0 0
 107500000 -0.223957104 0.968938507 0.000288353 -0.000248177167 0 0 0 0
 107625000 -0.222630096 0.969161557 0.000310505167 -0.0002342115 0 0 0 0
 107750000 -0.221198613 0.969470133 0.000455352333 -0.000252628667 0 0 0 0
 107875000 -0.219946432 0.969636139 0.000557391833 -0.000239722833 0 0 0 0
 108000000 -0.218541789 0.969899264 0.0005383485 -0.000277170333 0 0 0 0
 108125000 -0.217275395 0.970118091 0.000517528833 -0.0002875175 0 0 0 0
 108250000 -0.215972085 0.970410059 0.000493832 -0.000295162833 0 0 0 0
 108375000 -0.214717144 0.970703541 0.000435637 -0.000315025167 0 0 0 0
 108500000 -0.213500957 0.971081824 0.000355625167 -0.0003113545 0 0 0 0
 108625000 -0.212197491 0.971325792 0.000467200667 -0.000272758167 0 0 0 0
 108750000 -0.210842069 0.971579883 0.00050685 -0.000280977667 0 0 0 0
 108875000 -0.209506584 0.971894741 0.000616096167 -0.000232232 0 0 0 0
 109000000 -0.208200605 0.972060949 0.000628058333 -0.0002410625 0 0 0 0
 109125000 -0.207022664 0.972438613 0.000625932833 -0.000238543 0 0 0 0
 109250000 -0.205656445 0.972678347 0.000591699667 -0.000263911167 0 0 0 0
 109375000 -0.204433864 0.972922379 0.000569141667 -0.000296618833 0 0 0 0
 109500000 -0.203088264 0.973313323 0.0005123795 -0.000344699333 0 0 0 0
 109625000 -0.201846832 0.973469813 0.000558496 -0.000347147667 0 0 0 0
 109750000 -0.200554568 0.973779765 0.0005831705 -0.0003498645 0 0 0 0
 109875000 -0.199240744 0.974023829 0.000605076667 -0.000319559833 0 0 0 0
 110000000 -0.197963259 0.974433845 0.000628665167 -0.000299253 0 0 0 0
 110125000 -0.196734552 0.974641856 0.000686951333 -0.000297199167 0 0 0 0
 110250000 -0.195425608 0.974926325 0.000681832333 -0.000287237167 0 0 0 0
 110375000 -0.194131064 0.975223797 0.000677744333 -0.0003097375 0 0 0 0
 110500000 -0.19273656 0.975522763 0.000676612333 -0.000323792167 0 0 0 0
 110625000 -0.191484389 0.975738784 0.000683998167 -0.0003325625 0 0 0 0
 110750000 -0.190065299 0.975996139 0.0006826505 -0.000338282667 0 0 0 0
 110875000 -0.188838008 0.976265696 0.000694249 -0.000321248167 0 0 0 0
 111000000 -0.187444331 0.976594848 0.0007224285 -0.000309657 0 0 0 0
 111125000 -0.186169517 0.976721653 0.0007343265 -0.000305317333 0 0 0 0
 111250000 -0.184820341 0.977087179 0.000742635667 -0.000302142167 0 0 0 0
 111375000 -0.183486531 0.977226997 0.000753722333 -0.0003226135 0 0 0 0
 111500000 -0.182180552 0.977625664 0.0007550345 -0.000322834167 0 0 0 0
 111625000 -0.180895523 0.977792864 0.0007562555 -0.000341652833 0 0 0 0
 111750000 -0.179532763 0.978170741 0.000727877 -0.0003657575 0 0 0 0
 111875000 -0.178265851 0.978293312 0.000703515833 -0.000369048167 0 0 0 0
 112000000 -0.176872869 0.978564971 0.000726519333 -0.000412967167 0 0 0 0
 112125000 -0.175586011 0.978898805 0.000738113167 -0.000393300167 0 0 0 0
 112250000 -0.174331363 0.979030325 0.000756560333 -0.000398529 0 0 0 0
 112375000 -0.172963347 0.979294368 0.0007979695 -0.000351355 0 0 0 0
 112500000 -0.171588995 0.979503989 0.000839998 -0.0003433915 0 0 0 0
 112625000 -0.170348328 0.979735883 0.000791337667 -0.000350027 0 0 0 0
 112750000 -0.16892076 0.979963083 0.000801234 -0.000375635 0 0 0 0
 112875000 -0.167620621 0.980194272 0.0008290705 -0.000387113 0 0 0 0
 113000000 -0.166224973 0.980519509 0.000848685333 -0.000392070167 0 0 0 0
 113125000 -0.164952829 0.980631029 0.0008893605 -0.000421934333 0 0 0 0
 113250000 -0.163599331 0.980984523 0.000889589 -0.0003773825 0 0 0 0
 113375000 -0.16229048 0.981047637 0.000878278833 -0.000379153833 0 0 0 0
 113500000 -0.160981925 0.981388939 0.000920670833 -0.000373103333 0 0 0 0
 113625000 -0.159619181 0.981493824 0.0008941875 -0.000365742667 0 0 0 0
 113750000 -0.158295077 0.981734624 0.000920801667 -0.000356014833 0 0 0 0
 113875000 -0.156943851 0.981951808 0.000912907667 -0.000370223167 0 0 0 0
 114000000 -0.155527749 0.982163435 0.000945974667 -0.0003706885 0 0 0 0
 114125000 -0.154256216 0.982513365 0.000942478167 -0.000389084667 0 0 0 0
 114250000 -0.152812736 0.982636448 0.000950728333 -0.000390669833 0 0 0 0
 114375000 -0.151528323 0.982721035 0.0009741395 -0.000386956667 0 0 0 0
 114500000 -0.1501004 0.983042784 0.000974751333 -0.000372089833 0 0 0 0
 114625000 -0.148787424 0.983171328 0.000981322833 -0.0003885575 0 0 0 0
 114750000 -0.147372032 0.983506507 0.000991162833 -0.000383792 0 0 0 0
 114875000 -0.146078581 0.983640256 0.00100171467 -0.000397561 0 0 0 0
 115000000 -0.144773693 0.983980832 0.00102895683 -0.000422157167 0 0 0 0
 115125000 -0.143388803 0.984067008 0.00103321067 -0.000419073 0 0 0 0
 115250000 -0.142053939 0.984294176 0.00105311967 -0.000434343 0 0 0 0
 115375000 -0.140574544 0.98444928 0.00107338717 -0.000404382667 0 0 0 0
 115500000 -0.139215411 0.984588171 0.00107769017 -0.0004232965 0 0 0 0
 115625000 -0.137866669 0.984822144 0.00107406833 -0.0004240285 0 0 0 0
 115750000 -0.136486891 0.984977312 0.00109354867 -0.000431494833 0 0 0 0
 115875000 -0.135196117 0.985281781 0.00112148133 -0.000417217167 0 0 0 0
 116000000 -0.133808283 0.985713035 0.001114733 -0.000440560833 0 0 0 0
 116125000 -0.132398383 0.985644011 0.00112386883 -0.000445926 0 0 0 0
 116250000 -0.131114892 0.985848939 0.00115764417 -0.000448980667 0 0 0 0
 116375000 -0.129752319 0.985951051 0.00115990833 -0.000443337167 0 0 0 0
 116500000 -0.128350984 0.986208075 0.001166061 -0.000464707833 0 0 0 0
 116625000 -0.127029611 0.98625984 0.001187079 -0.000444179833 0 0 0 0
 116750000 -0.125618547 0.986540224 0.00120088517 -0.00046745 0 0 0 0
 116875000 -0.124216025 0.986710699 0.00119315683 -0.000472483333 0 0 0 0
 117000000 -0.122817907 0.986815893 0.0012397745 -0.000449862 0 0 0 0
 117125000 -0.121418492 0.987040949 0.0012466775 -0.000468054833 0 0 0 0
 117250000 -0.119950864 0.987167595 0.00127464767 -0.000474562667 0 0 0 0
 117375000 -0.118597597 0.987370571 0.00126110033 -0.000497333667 0 0 0 0
 117500000 -0.117175487 0.987536203 0.00129779717 -0.000495274 0 0 0 0
 117625000 -0.115740696 0.987692043 0.00131226433 -0.000495582667 0 0 0 0
 117750000 -0.114386887 0.987864149 0.00133355733 -0.000497498667 0 0 0 0
 117875000 -0.113026913 0.988047349 0.001341368 -0.000491980167 0 0 0 0
 118000000 -0.111555073 0.988212448 0.00136946767 -0.000501311 0 0 0 0
 118125000 -0.110147253 0.988281035 0.001374773 -0.000496451167 0 0 0 0
 118250000 -0.108730295 0.988557803 0.0013933485 -0.000510666167 0 0 0 0
 118375000 -0.107343552 0.988579989 0.001398437 -0.0004988865 0 0 0 0
 118500000 -0.105963128 0.988770901 0.0014338625 -0.0005024955 0 0 0 0
 118625000 -0.104496895 0.988968512 0.00144486533 -0.000491619833 0 0 0 0
 118750000 -0.103153975 0.989089333 0.00143506017 -0.000530434167 0 0 0 0
 118875000 -0.10178264 0.98937152 0.001479417 -0.000518415667 0 0 0 0
 119000000 -0.100195531 0.989404437 0.00150091083 -0.000535582833 0 0 0 0
 119125000 -0.0988432587 0.989546155 0.0015323895 -0.000521132667 0 0 0 0
 119250000 -0.0973806333 0.989679904 0.00151322583 -0.000549934333 0 0 0 0
 119375000 -0.095944296 0.989712416 0.00155912517 -0.0005692945 0 0 0 0
 119500000 -0.0945580133 0.989952736 0.001547581 -0.000565411333 0 0 0 0
 119625000 -0.09317226 0.990031093 0.00158733517 -0.000588583 0 0 0 0
 119750000 -0.091733076 0.990309301 0.0016087635 -0.000581116 0 0 0 0
 119875000 -0.090316448 0.990336203 0.00161206083 -0.000562651 0 0 0 0
 120000000 -0.088901676 0.99051616 0.001657955 -0.000561332167 0 0 0 0
 120125000 -0.0872896653 0.990627168 0.00169854467 -0.000570535 0 0 0 0
 120250000 -0.0858650067 0.990755744 0.0017399775 -0.000584795833 0 0 0 0
 120375000 -0.0844516227 0.990809163 0.00171559217 -0.0005983435 0 0 0 0
 120500000 -0.08289864 0.990922059 0.00175403233 -0.000611765833 0 0 0 0
 120625000 -0.0815618867 0.991074475 0.00176207717 -0.000590863667 0 0 0 0
 120750000 -0.0799557187 0.991173941 0.00178725983 -0.0005941015 0 0 0 0
 120875000 -0.078556116 0.991230688 0.001819309 -0.00060438 0 0 0 0
 121000000 -0.07710386 0.991415755 0.0018602905 -0.000638168833 0 0 0 0
 121125000 -0.0756289333 0.991505963 0.00188128433 -0.0006218795 0 0 0 0
 121250000 -0.0741170827 0.991646784 0.00188544383 -0.000618729833 0 0 0 0
 121375000 -0.0726377547 0.991710603 0.00193234633 -0.000625407667 0 0 0 0
 121500000 -0.0711278933 0.991936224 0.0019259705 -0.0006497035 0 0 0 0
 121625000 -0.0697331667 0.991993088 0.00197905 -0.000646009333 0 0 0 0
 121750000 -0.0681918 0.992041184 0.00200819917 -0.000652467167 0 0 0 0
 121875000 -0.0665945947 0.992150976 0.00204999017 -0.000651261167 0 0 0 0
 122000000 -0.065169802 0.992238773 0.0020712265 -0.0006580195 0 0 0 0
 122125000 -0.0636474453 0.992400469 0.00208305483 -0.000675032833 0 0 0 0
 122250000 -0.0620572467 0.992471424 0.00211568317 -0.000686164833 0 0 0 0
 122375000 -0.0606498647 0.992480309 0.00215094917 -0.000684642167 0 0 0 0
 122500000 -0.059061392 0.992516917 0.0021658545 -0.000680132333 0 0 0 0
 122625000 -0.057585854 0.992586699 0.00220516333 -0.00070082 0 0 0 0
 122750000 -0.0560278213 0.992815627 0.00223226383 -0.000702089333 0 0 0 0
 122875000 -0.0545812007 0.992783285 0.002257126 -0.000699395833 0 0 0 0
 123000000 -0.053073932 0.993060299 0.00231031317 -0.000689712167 0 0 0 0
 123125000 -0.0515157793 0.993112779 0.0023444295 -0.000678058833 0 0 0 0
 123250000 -0.0500564327 0.993292341 0.00238247133 -0.000705840667 0 0 0 0
 123375000 -0.04846656 0.993248725 0.002393037 -0.0007036545 0 0 0 0
 123500000 -0.0469757547 0.993245771 0.00241829483 -0.000755729 0 0 0 0
 123625000 -0.0454014473 0.993601621 0.00246874333 -0.000728178167 0 0 0 0
 123750000 -0.0438577193 0.993620587 0.00252772767 -0.0007430655 0 0 0 0
 123875000 -0.0423074487 0.99375648 0.00252091817 -0.000732823 0 0 0 0
 124000000 -0.040547612 0.993862016 0.0025835795 -0.000722329 0 0 0 0
 124125000 -0.03912419 0.993838933 0.00263091117 -0.000734202167 0 0 0 0
 124250000 -0.0375311473 0.993937291 0.00264751567 -0.0007560615 0 0 0 0
 124375000 -0.0359944847 0.993815808 0.00270603683 -0.000758282833 0 0 0 0
 124500000 -0.034320432 0.994008203 0.00273398717 -0.000765817833 0 0 0 0
 124625000 -0.032841555 0.993984107 0.00278568417 -0.000768589 0 0 0 0
 124750000 -0.0312401897 0.994130208 0.002792457 -0.0007852085 0 0 0 0
 124875000 -0.0295428067 0.994054005 0.00287742383 -0.000784520333 0 0 0 0
 125000000 -0.027930443 0.994109077 0.0029105775 -0.000797261667 0 0 0 0
 125125000 -0.0263098313 0.994194005 0.00296986067 -0.000767244167 0 0 0 0
 125250000 -0.024660483 0.994179883 0.002989416 -0.0008032145 0 0 0 0
 125375000 -0.022953046 0.994110475 0.0030458865 -0.000809831167 0 0 0 0
 125500000 -0.0213283123 0.994156416 0.00308517567 -0.000815030833 0 0 0 0
 125625000 -0.0197433153 0.99416832 0.00313606467 -0.000824905333 0 0 0 0
 125750000 -0.018027547 0.994232384 0.00319556467 -0.000835118167 0 0 0 0
 125875000 -0.0163398855 0.994120832 0.00324657983 -0.000827161167 0 0 0 0
 126000000 -0.0146715532 0.994307051 0.0032858735 -0.000833239833 0 0 0 0
 126125000 -0.0130044627 0.994294805 0.003349283 -0.000842010833 0 0 0 0
 126250000 -0.0112740468 0.994342421 0.00338748633 -0.000847623667 0 0 0 0
 126375000 -0.00953691467 0.994242699 0.00344104017 -0.000862784167 0 0 0 0
 126500000 -0.007887691 0.994216672 0.00349697667 -0.000880142667 0 0 0 0
 126625000 -0.00617198283 0.994300757 0.00352994583 -0.000883016167 0 0 0 0
 126750000 -0.004446743 0.994215445 0.00360406383 -0.000909123333 0 0 0 0
 126875000 -0.00274762717 0.994309205 0.00365414217 -0.000908543333 0 0 0 0
 127000000 -0.000895252 0.994269536 0.00373669167 -0.000904510667 0 0 0 0
 127125000 0.000805112167 0.994263989 0.00376122933 -0.000893481 0 0 0 0
 127250000 0.00258904467 0.994295584 0.00385304183 -0.0009118645 0 0 0 0
 127375000 0.00435548983 0.994232299 0.0039106545 -0.0009281535 0 0 0 0
 127500000 0.00614887317 0.994231029 0.00397305533 -0.0009319995 0 0 0 0
 127625000 0.007876633 0.994150933 0.0040301425 -0.000950537833 0 0 0 0
 127750000 0.00970185167 0.994248213 0.0040953485 -0.0009479435 0 0 0 0
 127875000 0.0114186185 0.994101771 0.00416917167 -0.000978868333 0 0 0 0
 128000000 0.0132592775 0.994086443 0.00423698033 -0.0009860605 0 0 0 0
 128125000 0.0148707053 0.993972555 0.00429022917 -0.000981917667 0 0 0 0
 128250000 0.0168386455 0.994020555 0.00436385883 -0.00100926833 0 0 0 0
 128375000 0.0188263387 0.994070283 0.00442302767 -0.0010064255 0 0 0 0
 128500000 0.020597759 0.993945845 0.00450594133 -0.00101132083 0 0 0 0
 128625000 0.0225225683 0.993883328 0.0045620225 -0.0010186495 0 0 0 0
 128750000 0.0244299377 0.993852725 0.00466073233 -0.00104483633 0 0 0 0
 128875000 0.0262327497 0.993793131 0.00476047417 -0.00102978083 0 0 0 0
 129000000 0.0282539293 0.993777472 0.00483426317 -0.00102734933 0 0 0 0
 129125000 0.0301258457 0.993540725 0.00490923733 -0.00105222633 0 0 0 0
 129250000 0.0321540523 0.993587819 0.00500024517 -0.00107658217 0 0 0 0
 129375000 0.0340285267 0.993329248 0.005070353 -0.00108683067 0 0 0 0
 129500000 0.0359718887 0.993460896 0.0051391865 -0.00110645917 0 0 0 0
 129625000 0.0380463127 0.993251712 0.005235101 -0.00111164017 0 0 0 0
 129750000 0.0399432713 0.993255755 0.005347167 -0.00111907367 0 0 0 0
 129875000 0.0419888293 0.993094453 0.00543690483 -0.00114017733 0 0 0 0
 130000000 0.044134408 0.992992864 0.00554170233 -0.00114789467 0 0 0 0
 130125000 0.0460171147 0.992555883 0.00561572317 -0.00118357283 0 0 0 0
 130250000 0.0480538147 0.992540896 0.00574965833 -0.00116299 0 0 0 0
 130375000 0.050068268 0.992349557 0.00581795133 -0.00118870617 0 0 0 0
 130500000 0.0521523507 0.992289781 0.00596537417 -0.001219423 0 0 0 0
 130625000 0.0542050087 0.992103563 0.006056606 -0.00124421683 0 0 0 0
 130750000 0.0563151213 0.991980171 0.00615879167 -0.00123506017 0 0 0 0
 130875000 0.0582818147 0.99179168 0.006264431 -0.001222948 0 0 0 0
 131000000 0.0601716407 0.991496971 0.00639236717 -0.00128082067 0 0 0 0
 131125000 0.0621695767 0.991421952 0.00649566517 -0.00128490617 0 0 0 0
 131250000 0.064234496 0.991210901 0.0066478225 -0.00130371133 0 0 0 0
 131375000 0.066446994 0.991057664 0.00675523367 -0.00130891817 0 0 0 0
 131500000 0.0687472653 0.990900576 0.0068788705 -0.00132596867 0 0 0 0
 131625000 0.0709841107 0.990646645 0.007019601 -0.00136445467 0 0 0 0
 131750000 0.0732610013 0.990507285 0.0071454855 -0.00135611483 0 0 0 0
 131875000 0.0755640947 0.990231317 0.007323732 -0.00139874433 0 0 0 0
 132000000 0.0779076427 0.990091093 0.00745710567 -0.001432854 0 0 0 0
 132125000 0.080277748 0.989846219 0.00757954017 -0.00144953033 0 0 0 0
 132250000 0.0826081853 0.989689429 0.00776400317 -0.00145196167 0 0 0 0
 132375000 0.0850220667 0.989406805 0.00791023317 -0.00149661467 0 0 0 0
 132500000 0.08753472 0.989102187 0.00808179417 -0.0015218295 0 0 0 0
 132625000 0.089980636 0.988845397 0.008263572 -0.0015414955 0 0 0 0
 132750000 0.09252214 0.988661397 0.00842760283 -0.00158148217 0 0 0 0
 132875000 0.095003844 0.988516896 0.00860947717 -0.0016017445 0 0 0 0
 133000000 0.0975873347 0.988107563 0.0087620445 -0.00162925533 0 0 0 0
 133125000 0.100085139 0.987884171 0.00895067767 -0.0016643805 0 0 0 0
 133250000 0.102685107 0.987564213 0.00914198917 -0.00167133933 0 0 0 0
 133375000 0.105223139 0.987287957 0.00935177533 -0.0017032425 0 0 0 0
 133500000 0.107913567 0.987025749 0.0095463105 -0.00175489867 0 0 0 0
 133625000 0.110538089 0.986638731 0.00978725383 -0.00180750283 0 0 0 0
 133750000 0.113276632 0.986366336 0.00998685333 -0.00179946583 0 0 0 0
 133875000 0.116050277 0.985908704 0.0102249058 -0.00186744733 0 0 0 0
 134000000 0.118869612 0.985613867 0.0104587428 -0.00190232567 0 0 0 0
 134125000 0.121653009 0.985284587 0.0106857758 -0.00192731717 0 0 0 0
 134250000 0.124532604 0.984871093 0.0109420865 -0.001945673 0 0 0 0
 134375000 0.127315399 0.984387947 0.0111879892 -0.001994233 0 0 0 0
 134500000 0.130206749 0.983968928 0.0114788793 -0.00204177883 0 0 0 0
 134625000 0.133313616 0.983539445 0.0117385815 -0.00207299617 0 0 0 0
 134750000 0.136246331 0.983119915 0.012024235 -0.00212685717 0 0 0 0
 134875000 0.139358413 0.982698069 0.0122943705 -0.00216917333 0 0 0 0
 135000000 0.142451427 0.982190933 0.0125846178 -0.00221844233 0 0 0 0
 135125000 0.145649856 0.981551616 0.0129150438 -0.00229393267 0 0 0 0
 135250000 0.148919968 0.981036363 0.0132082458 -0.00234649517 0 0 0 0
 135375000 0.152090957 0.980554517 0.0135424168 -0.00238052583 0 0 0 0
 135500000 0.155352277 0.979958912 0.0139357678 -0.00245407767 0 0 0 0
 135625000 0.158855691 0.979235029 0.0142764745 -0.00250248717 0 0 0 0
 135750000 0.162210069 0.978720053 0.0146394535 -0.00256318117 0 0 0 0
 135875000 0.165801613 0.978055755 0.0150231262 -0.00266556967 0 0 0 0
 136000000 0.169434709 0.977356757 0.0154169692 -0.002715448 0 0 0 0
 136125000 0.173020533 0.976689824 0.015825817 -0.00278262767 0 0 0 0
 136250000 0.176687269 0.975936171 0.0162514717 -0.0028943515 0 0 0 0
 136375000 0.180363677 0.975151541 0.0167108508 -0.00296579933 0 0 0 0
 136500000 0.184342584 0.974430283 0.0171662777 -0.00303392933 0 0 0 0
 136625000 0.188193243 0.973511616 0.0176612713 -0.00312264717 0 0 0 0
 136750000 0.192292469 0.972677451 0.0181743297 -0.003212069 0 0 0 0
 136875000 0.196268715 0.971820928 0.0186732857 -0.00331448467 0 0 0 0
 137000000 0.200495549 0.970924661 0.0192361483 -0.00341992983 0 0 0 0
 137125000 0.204750115 0.969777099 0.019812742 -0.00351470867 0 0 0 0
 137250000 0.209158461 0.968790229 0.0203945433 -0.00362399717 0 0 0 0
 137375000 0.213467419 0.967774976 0.0210640167 -0.00378903567 0 0 0 0
 137500000 0.218000373 0.966643915 0.02172004 -0.00392396433 0 0 0 0
 137625000 0.222590288 0.965465355 0.0224065727 -0.00404672567 0 0 0 0
 137750000 0.227285317 0.964302752 0.023109382 -0.00421984933 0 0 0 0
 137875000 0.232269117 0.963070709 0.023884201 -0.00437924417 0 0 0 0
 138000000 0.237312712 0.96169232 0.02465361 -0.0045251285 0 0 0 0
 138125000 0.242566224 0.960325664 0.0255109197 -0.00471696833 0 0 0 0
 138250000 0.247879069 0.958742848 0.026385905 -0.00490290683 0 0 0 0
 138375000 0.253333808 0.957088565 0.0272997853 -0.00510671 0 0 0 0
 138500000 0.258972693 0.955480907 0.0282574893 -0.00532420333 0 0 0 0
 138625000 0.26473724 0.953742123 0.0292994997 -0.00558755417 0 0 0 0
 138750000 0.270748645 0.951984373 0.0303509223 -0.0058437935 0 0 0 0
 138875000 0.276785584 0.949884981 0.0314756373 -0.0061446095 0 0 0 0
 139000000 0.283353451 0.947867349 0.0326927113 -0.00640948633 0 0 0 0
 139125000 0.289936843 0.945554517 0.0339478513 -0.00674471583 0 0 0 0
 139250000 0.296690016 0.943241739 0.0353002113 -0.00711286417 0 0 0 0
 139375000 0.303740064 0.940676587 0.036671712 -0.0074971115 0 0 0 0
 139500000 0.311074709 0.938081536 0.0381814833 -0.0079066745 0 0 0 0
 139625000 0.318511013 0.935229472 0.0397812173 -0.0083733115 0 0 0 0
 139750000 0.326258747 0.932262795 0.0414260753 -0.00885712583 0 0 0 0
 139875000 0.334313301 0.929058805 0.0432316747 -0.00939931267 0 0 0 0
 140000000 0.342629621 0.925596096 0.045132142 -0.00997784733 0 0 0 0
 140125000 0.351211461 0.921865515 0.0471462027 -0.0106252888 0 0 0 0
 140250000 0.360079483 0.918204373 0.049280778 -0.0113472837 0 0 0 0
 140375000 0.369513115 0.9138064 0.051594766 -0.012107489 0 0 0 0
 140500000 0.379096411 0.909375243 0.0540573733 -0.0129698182 0 0 0 0
 140625000 0.389105232 0.904512789 0.0567286647 -0.0139274505 0 0 0 0
 140750000 0.399672827 0.899224416 0.0595680573 -0.014983225 0 0 0 0
 140875000 0.410659024 0.893518677 0.06260533 -0.0161561542 0 0 0 0
 141000000 0.42224768 0.887354699 0.0658672813 -0.0174688767 0 0 0 0
 141125000 0.434316629 0.880569429 0.06940484 -0.0189903433 0 0 0 0
 141250000 0.446913264 0.873202144 0.0732160227 -0.0206574053 0 0 0 0
 141375000 0.460232283 0.865146197 0.0773617827 -0.0225114757 0 0 0 0
 141500000 0.474135147 0.856243541 0.081835836 -0.024663506 0 0 0 0
 141625000 0.488755696 0.846434549 0.0867119013 -0.0270481423 0 0 0 0
 141750000 0.504246853 0.835571189 0.092019992 -0.029801103 0 0 0 0
 141875000 0.520497499 0.823507925 0.097791488 -0.0329399067 0 0 0 0
 142000000 0.537691819 0.810032096 0.104128968 -0.036584328 0 0 0 0
 142125000 0.555763925 0.794978965 0.111018204 -0.0408123767 0 0 0 0
 142250000 0.574725952 0.778025589 0.118617352 -0.0456814393 0 0 0 0
 142375000 0.594722603 0.758927413 0.126909541 -0.0513799207 0 0 0 0
 142500000 0.615672459 0.737296267 0.136028144 -0.0580565027 0 0 0 0
 142625000 0.637398091 0.712743136 0.146035224 -0.065956806 0 0 0 0
 142750000 0.659993984 0.684652117 0.157034195 -0.07536298 0 0 0 0
 142875000 0.683203552 0.652531595 0.169058147 -0.0865707467 0 0 0 0
 143000000 0.706727381 0.615295787 0.182219264 -0.100100968 0 0 0 0
 143125000 0.730097963 0.572479189 0.196544576 -0.116530729 0 0 0 0
 143250000 0.752536725 0.522754032 0.211967688 -0.136621643 0 0 0 0
 143375000 0.77271728 0.464976037 0.228272989 -0.161321696 0 0 0 0
 143500000 0.789152875 0.397815477 0.245077411 -0.191896376 0 0 0 0
 143625000 0.799021291 0.320207941 0.261486315 -0.229873715 0 0 0 0
 143750000 0.798764288 0.231404925 0.276043083 -0.277026517 0 0 0 0
 143875000 0.783371477 0.131835613 0.286157136 -0.335372635 0 0 0 0
 144000000 0.746957792 0.0237316413 0.287591344 -0.406715397 0 0 0 0
 144125000 0.682581749 -0.0872743773 0.274089456 -0.491576693 0 0 0 0
 144250000 0.585245781 -0.191099443 0.237305971 -0.587529461 0 0 0 0
 144375000 0.454422469 -0.273521376 0.168148792 -0.686591168 0 0 0 0
 144500000 0.297440752 -0.3188068 0.0610130807 -0.774467392 0 0 0 0
 144625000 0.131008268 -0.315583941 -0.080346392 -0.831943947 0 0 0 0
 144750000 -0.0231577863 -0.263120365 -0.239753832 -0.843787243 0 0 0 0
 144875000 -0.146273221 -0.17197008 -0.394433424 -0.80709664 0 0 0 0
 145000000 -0.228485888 -0.0599804273 -0.524943195 -0.73249296 0 0 0 0
 145125000 -0.269748693 0.0553003253 -0.623568779 -0.637413792 0 0 0 0
 145250000 -0.276523408 0.160967941 -0.692462464 -0.536521307 0 0 0 0
 145375000 -0.257599448 0.249458251 -0.738379893 -0.438633269 0 0 0 0
 145500000 -0.221291805 0.317563829 -0.768902453 -0.347598005 0 0 0 0
 145625000 -0.174286872 0.364708693 -0.790066101 -0.263086515 0 0 0 0
 145750000 -0.121703296 0.391059536 -0.805955083 -0.183387352 0 0 0 0
 145875000 -0.067824514 0.397071195 -0.819147349 -0.105857787 0 0 0 0
 146000000 -0.0163438097 0.383144992 -0.830567051 -0.0270608787 0 0 0 0
 146125000 0.0285071783 0.349128896 -0.839512715 0.056262988 0 0 0 0
 146250000 0.061433942 0.295493136 -0.843757941 0.147552643 0 0 0 0
 146375000 0.0757447333 0.22398868 -0.838635797 0.249618163 0 0 0 0
 146500000 0.063470558 0.138903099 -0.817194336 0.363426453 0 0 0 0
 146625000 0.0169876673 0.04985904 -0.769746528 0.485906576 0 0 0 0
 146750000 -0.0671131913 -0.0284024187 -0.687096853 0.607314709 0 0 0 0
 146875000 -0.183823355 -0.0785280387 -0.565502208 0.710314816 0 0 0 0
 147000000 -0.317849931 -0.08702618 -0.413134699 0.774938176 0 0 0 0
 147125000 -0.448810336 -0.0510784027 -0.250495363 0.78844528 0 0 0 0
 147250000 -0.558786411 0.0208410515 -0.102548399 0.753458528 0 0 0 0
 147375000 -0.638629035 0.113772499 0.0143736142 0.685499179 0 0 0 0
 147500000 -0.688099787 0.213630512 0.0960733453 0.60291824 0 0 0 0
 147625000 -0.712109109 0.310278453 0.147034605 0.519511675 0 0 0 0
 147750000 -0.716976971 0.398412464 0.175115304 0.443366181 0 0 0 0
 147875000 -0.708952331 0.475812475 0.187534045 0.377351611 0 0 0 0
 148000000 -0.692639349 0.542271595 0.190148539 0.321658773 0 0 0 0
 148125000 -0.671407136 0.599042112 0.186733699 0.2754388 0 0 0 0
 148250000 -0.647523883 0.647172736 0.179943931 0.237247691 0 0 0 0
 148375000 -0.622709579 0.688016565 0.171411784 0.205637795 0 0 0 0
 148500000 -0.597677579 0.722744363 0.162147192 0.179413237 0 0 0 0
 148625000 -0.573136149 0.752324981 0.152750269 0.15755196 0 0 0 0
 148750000 -0.549379659 0.777843467 0.143574749 0.139203792 0 0 0 0
 148875000 -0.52659584 0.799875499 0.134817152 0.123717468 0 0 0 0
 149000000 -0.504890699 0.818925077 0.126527245 0.110547735 0 0 0 0
 149125000 -0.484263845 0.835547403 0.118856804 0.0992780067 0 0 0 0
 149250000 -0.464752395 0.850145653 0.111655263 0.0896179813 0 0 0 0
 149375000 -0.446267936 0.862833003 0.105051439 0.0812920627 0 0 0 0
 149500000 -0.428797371 0.874199595 0.0988706747 0.073993312 0 0 0 0
 149625000 -0.412282368 0.884271456 0.093180048 0.067667252 0 0 0 0
 149750000 -0.396728341 0.893245461 0.0879550067 0.0620580293 0 0 0 0
 149875000 -0.382018315 0.901244 0.0830855 0.057110354 0 0 0 0
 150000000 -0.367875728 0.908458955 0.0785977333 0.0527229087 0 0 0 0
 150125000 -0.354775424 0.914730176 0.07447568 0.0488565207 0 0 0 0
 150250000 -0.342080667 0.920642507 0.0705914347 0.0453781427 0 0 0 0
 150375000 -0.330078469 0.925875083 0.066979046 0.042234198 0 0 0 0
 150500000 -0.318512267 0.930747019 0.0636490447 0.039401794 0 0 0 0
 150625000 -0.307581093 0.935205237 0.060517702 0.036841248 0 0 0 0
 150750000 -0.297063285 0.939215104 0.057639318 0.0345312973 0 0 0 0
 150875000 -0.286941115 0.942931691 0.0549002767 0.0324001263 0 0 0 0
 151000000 -0.277298992 0.946433056 0.0523534927 0.0304810343 0 0 0 0
 151125000 -0.267939021 0.949667445 0.0499865693 0.0287192487 0 0 0 0
 151250000 -0.259038 0.952486837 0.0477577027 0.0271414573 0 0 0 0
 151375000 -0.250459339 0.95512672 0.045685418 0.025651795 0 0 0 0
 151500000 -0.242115307 0.957556896 0.0437229227 0.024302262 0 0 0 0
 151625000 -0.234214291 0.960014933 0.04189427 0.0230458387 0 0 0 0
 151750000 -0.226560405 0.962066592 0.04016952 0.0218807933 0 0 0 0
 151875000 -0.219219709 0.964033867 0.0385506767 0.0208149893 0 0 0 0
 152000000 -0.212016941 0.965966848 0.0370077887 0.019858705 0 0 0 0
 152125000 -0.205142051 0.967658411 0.0355742367 0.0189328327 0 0 0 0
 152250000 -0.198508152 0.969166219 0.0341943933 0.018092222 0 0 0 0
 152375000 -0.192116448 0.970692053 0.0329042637 0.0172896117 0 0 0 0
 152500000 -0.18588568 0.972061856 0.0316755997 0.0165396083 0 0 0 0
 152625000 -0.179812123 0.973328683 0.0305646867 0.0158503153 0 0 0 0
 152750000 -0.173932685 0.974608885 0.0294397093 0.0151934125 0 0 0 0
 152875000 -0.168331973 0.975779829 0.0284028877 0.0145711618 0 0 0 0
 153000000 -0.162771032 0.97691632 0.027413876 0.0140258873 0 0 0 0
 153125000 -0.157503488 0.977823435 0.0264717467 0.0134804218 0 0 0 0
 153250000 -0.152306219 0.978839605 0.0255721777 0.0129680552 0 0 0 0
 153375000 -0.147314003 0.979611669 0.024727431 0.0125051772 0 0 0 0
 153500000 -0.142417773 0.980426997 0.0239510343 0.0120548357 0 0 0 0
 153625000 -0.137721504 0.981266581 0.0231760043 0.0116154722 0 0 0 0
 153750000 -0.133045481 0.982013451 0.0224234377 0.0112346768 0 0 0 0
 153875000 -0.128627367 0.982726592 0.0217256557 0.0108425552 0 0 0 0
 154000000 -0.124106135 0.983368725 0.021055687 0.010495349 0 0 0 0
 154125000 -0.119829681 0.983940405 0.0203899807 0.0101621428 0 0 0 0
 154250000 -0.115589261 0.984464427 0.019795394 0.0098186645 0 0 0 0
 154375000 -0.11142172 0.985166325 0.0192083977 0.00951512733 0 0 0 0
 154500000 -0.107410677 0.985619829 0.0186264973 0.00921587417 0 0 0 0
 154625000 -0.103412928 0.986107531 0.0180741183 0.00893405433 0 0 0 0
 154750000 -0.0995441347 0.986557045 0.0175518547 0.00866690917 0 0 0 0
 154875000 -0.0957950947 0.987003189 0.0170758503 0.00843464917 0 0 0 0
 155000000 -0.0920124373 0.987308629 0.0166190448 0.008208967 0 0 0 0
 155125000 -0.0883480693 0.98777168 0.0161214338 0.0079638375 0 0 0 0
 155250000 -0.0847897533 0.988138827 0.0156816423 0.00773944433 0 0 0 0
 155375000 -0.081248296 0.988482123 0.0152546693 0.00752068283 0 0 0 0
 155500000 -0.077725132 0.988769173 0.0148129837 0.007322116 0 0 0 0
 155625000 -0.074366652 0.989028416 0.0144434675 0.0071420825 0 0 0 0
 155750000 -0.0710425067 0.989390304 0.0140552562 0.0069549255 0 0 0 0
 155875000 -0.067913196 0.989660277 0.0136919072 0.00675248933 0 0 0 0
 156000000 -0.064661396 0.990062379 0.0133293787 0.00661171567 0 0 0 0
 156125000 -0.0615639893 0.990258965 0.0129985128 0.006419573 0 0 0 0
 156250000 -0.058520926 0.990425621 0.012696119 0.0062617745 0 0 0 0
 156375000 -0.055609342 0.990682677 0.012391813 0.00612940767 0 0 0 0
 156500000 -0.052645376 0.990896192 0.012053353 0.005975282 0 0 0 0
 156625000 -0.0497228513 0.991006112 0.0117730982 0.00584733017 0 0 0 0
 156750000 -0.046787326 0.991262976 0.0114556507 0.005692064 0 0 0 0
 156875000 -0.0440470447 0.991360661 0.0112316833 0.00557116917 0 0 0 0
 157000000 -0.041270666 0.991535157 0.0109646838 0.00545326117 0 0 0 0
 157125000 -0.0385578733 0.991641312 0.0107199148 0.00533574283 0 0 0 0
 157250000 -0.0359098113 0.991764331 0.0104514388 0.0051847875 0 0 0 0
 157375000 -0.0331800277 0.991838304 0.0102216795 0.0050970545 0 0 0 0
 157500000 -0.0305496053 0.991860608 0.0099704545 0.0050060635 0 0 0 0
 157625000 -0.0279523697 0.991990624 0.00974069617 0.00489707933 0 0 0 0
 157750000 -0.0253735173 0.992006208 0.00952425017 0.00478126517 0 0 0 0
 157875000 -0.0228487433 0.991959989 0.009311322 0.00468900167 0 0 0 0
 158000000 -0.0203507363 0.992155925 0.009111892 0.004594894 0 0 0 0
 158125000 -0.0179049527 0.992193099 0.00889759967 0.00450429983 0 0 0 0
 158250000 -0.0154568948 0.992160907 0.00871754717 0.00440257733 0 0 0 0
 158375000 -0.0131714463 0.992275232 0.00852575533 0.0043056145 0 0 0 0
 158500000 -0.0107775413 0.992278357 0.00833285467 0.0042523165 0 0 0 0
 158625000 -0.008362291 0.992355669 0.00814105967 0.00415464633 0 0 0 0
 158750000 -0.00602954267 0.992386795 0.00799926017 0.004099015 0 0 0 0
 158875000 -0.00376317767 0.992405259 0.00780962483 0.0040229305 0 0 0 0
 159000000 -0.001487606 0.992386923 0.00765732583 0.0039404575 0 0 0 0
 159125000 0.000747874 0.992336747 0.00748322317 0.00386213733 0 0 0 0
 159250000 0.0029561705 0.992391307 0.0073302055 0.00377527183 0 0 0 0
 159375000 0.0050724805 0.992404203 0.007196119 0.003720706 0 0 0 0
 159500000 0.007218007 0.992420523 0.0070508235 0.00366235217 0 0 0 0
 159625000 0.00923174817 0.992383029 0.006909114 0.003591995 0 0 0 0
 159750000 0.0113916117 0.992483595 0.00675386233 0.00352582583 0 0 0 0
 159875000 0.0135013155 0.992360939 0.00661336333 0.00346100933 0 0 0 0
 160000000 0.015495045 0.992397045 0.00651236783 0.00342097917 0 0 0 0
 160125000 0.0174989693 0.99239728 0.00636124567 0.00337299133 0 0 0 0
 160250000 0.019447502 0.992310411 0.00624707083 0.00330738467 0 0 0 0
 160375000 0.0214059303 0.992216395 0.00614619833 0.00324569017 0 0 0 0
 160500000 0.0233398603 0.992235424 0.00601334367 0.00318472633 0 0 0 0
 160625000 0.025400536 0.992183701 0.00591695417 0.00314928267 0 0 0 0
 160750000 0.0272428143 0.992115563 0.00580219617 0.00308007817 0 0 0 0
 160875000 0.029151035 0.992155691 0.005682989 0.003035617 0 0 0 0
 161000000 0.031030801 0.99206672 0.0055536395 0.0029849665 0 0 0 0
 161125000 0.0328937557 0.991992683 0.00548061517 0.002931797 0 0 0 0
 161250000 0.0347442113 0.991978485 0.00538286383 0.002885387 0 0 0 0
 161375000 0.036572202 0.991882016 0.0052793835 0.00284420983 0 0 0 0
 161500000 0.0384179433 0.991725824 0.00518906883 0.00277872333 0 0 0 0
 161625000 0.040233718 0.991720192 0.005071697 0.00274058767 0 0 0 0
 161750000 0.042088624 0.991700661 0.00498621933 0.002700138 0 0 0 0
 161875000 0.043863692 0.991614272 0.00489633767 0.00266494317 0 0 0 0
 162000000 0.0456095133 0.991616395 0.00482108983 0.00266998083 0 0 0 0
 162125000 0.047326794 0.991476096 0.0047278415 0.00260796517 0 0 0 0
 162250000 0.049082082 0.991337333 0.00464366467 0.00254526633 0 0 0 0
 162375000 0.0507116533 0.991269579 0.00456811967 0.002533881 0 0 0 0
 162500000 0.0525176393 0.991192651 0.00446334417 0.0024755475 0 0 0 0
 162625000 0.054150142 0.991076277 0.00440046 0.00244285017 0 0 0 0
 162750000 0.0558488807 0.990958997 0.00433902183 0.00237688633 0 0 0 0
 162875000 0.0574119153 0.990979264 0.0042481725 0.00235039 0 0 0 0
 163000000 0.059096092 0.990881355 0.00419190667 0.002308451 0 0 0 0
 163125000 0.060826606 0.990653387 0.00410492083 0.00232366667 0 0 0 0
 163250000 0.0624455833 0.990671915 0.004024142 0.00225716883 0 0 0 0
 163375000 0.0640113067 0.990535232 0.00396842217 0.0022554595 0 0 0 0
 163500000 0.065623454 0.990389717 0.003890123 0.0022309795 0 0 0 0
 163625000 0.0672326067 0.990356523 0.00383941 0.00218274667 0 0 0 0
 163750000 0.0687061867 0.990167499 0.00377124217 0.00214015533 0 0 0 0
 163875000 0.0703100067 0.990113227 0.0036936705 0.0021036095 0 0 0 0
 164000000 0.0718873907 0.99003248 0.00364097683 0.00208805883 0 0 0 0
 164125000 0.073488136 0.98994064 0.0035800425 0.00204794883 0 0 0 0
 164250000 0.0749499333 0.989688523 0.00352243617 0.00203793583 0 0 0 0
 164375000 0.07641088 0.989597707 0.00346907367 0.0020385475 0 0 0 0
 164500000 0.078048072 0.989473131 0.00341624867 0.00198095783 0 0 0 0
 164625000 0.0794913667 0.9893272 0.00337572617 0.00198020267 0 0 0 0
 164750000 0.080928592 0.989304864 0.0033228235 0.00192305583 0 0 0 0
 164875000 0.0823946653 0.989216917 0.00326610283 0.00189365383 0 0 0 0
 165000000 0.0839770987 0.989152021 0.0031859625 0.00186370033 0 0 0 0
 165125000 0.0854562107 0.989004224 0.0031667735 0.00184782117 0 0 0 0
 165250000 0.086981144 0.988829408 0.00308007083 0.00183763217 0 0 0 0
 165375000 0.0884780893 0.988730656 0.00307549683 0.00181365383 0 0 0 0
 165500000 0.089944576 0.988571627 0.00299052783 0.00179694983 0 0 0 0
 165625000 0.0913621653 0.988371915 0.002950217 0.001758248 0 0 0 0
 165750000 0.092761044 0.988274016 0.00289914267 0.0017315715 0 0 0 0
 165875000 0.094190172 0.98815536 0.00287913483 0.001710855 0 0 0 0
 166000000 0.0955488733 0.988044629 0.0028110255 0.00169507333 0 0 0 0
 166125000 0.0968656213 0.987797856 0.00279454633 0.00168440883 0 0 0 0
 166250000 0.0984163173 0.987785301 0.00270312567 0.00166415833 0 0 0 0
 166375000 0.0998285693 0.98756032 0.00267954117 0.00164329983 0 0 0 0
 166500000 0.101236777 0.987473771 0.00263063833 0.001623078 0 0 0 0
 166625000 0.102587973 0.987304768 0.0026040835 0.00161602217 0 0 0 0
 166750000 0.103978391 0.987180128 0.00253962133 0.00157874767 0 0 0 0
 166875000 0.105224089 0.986954059 0.0025137395 0.0015570165 0 0 0 0
 167000000 0.106648657 0.986894549 0.0024824655 0.00154028883 0 0 0 0
 167125000 0.1079014 0.986788608 0.00243575067 0.001523589 0 0 0 0
 167250000 0.109259459 0.986541259 0.00241862883 0.00150293317 0 0 0 0
 167375000 0.110589397 0.986419851 0.0023843195 0.00148199633 0 0 0 0
 167500000 0.111899145 0.986252683 0.0023387565 0.0014723205 0 0 0 0
 167625000 0.113219573 0.986043136 0.00227765667 0.00144283967 0 0 0 0
 167750000 0.114515072 0.985974485 0.002233379 0.00142463917 0 0 0 0
 167875000 0.115799875 0.985821696 0.00220860033 0.00142609033 0 0 0 0
 168000000 0.117135052 0.985614592 0.0021725175 0.00138933633 0 0 0 0
 168125000 0.118477813 0.985442464 0.002138927 0.00139997767 0 0 0 0
 168250000 0.119694791 0.985316768 0.00211506033 0.0013598605 0 0 0 0
 168375000 0.120969917 0.985170699 0.002088871 0.00135540717 0 0 0 0
 168500000 0.122345715 0.9849768 0.00204239767 0.00130474617 0 0 0 0
 168625000 0.123530772 0.98484624 0.0020279555 0.00131327083 0 0 0 0
 168750000 0.124776443 0.984696448 0.00201493633 0.00131932 0 0 0 0
 168875000 0.125909721 0.984451723 0.00198553967 0.00131844417 0 0 0 0
 169000000 0.127211539 0.984480043 0.001928936 0.0012839345 0 0 0 0
 169125000 0.128471147 0.984238187 0.00191244767 0.00126823817 0 0 0 0
 169250000 0.129723211 0.984060864 0.00189198233 0.00123125867 0 0 0 0
 169375000 0.130923468 0.983855509 0.0018456015 0.00124007083 0 0 0 0
 169500000 0.132165792 0.983698475 0.00182952367 0.00122318983 0 0 0 0
 169625000 0.133425265 0.983483808 0.00179890183 0.00120650517 0 0 0 0
 169750000 0.1347572 0.983321184 0.00176352967 0.00117811333 0 0 0 0
 169875000 0.135972531 0.983132853 0.0017338995 0.00115751933 0 0 0 0
 170000000 0.137277976 0.982910315 0.001710163 0.00116994317 0 0 0 0
 170125000 0.138431819 0.982760363 0.001690405 0.00112484217 0 0 0 0
 170250000 0.139607811 0.982564085 0.00167540483 0.0011282095 0 0 0 0
 170375000 0.14085812 0.982403115 0.00165705183 0.001103702 0 0 0 0
 170500000 0.142186621 0.982202016 0.0015941215 0.001070069 0 0 0 0
 170625000 0.143356944 0.981951392 0.0015983395 0.001090063 0 0 0 0
 170750000 0.144514163 0.981813675 0.00157583533 0.00107083017 0 0 0 0
 170875000 0.145718405 0.981534133 0.00153103217 0.00105334883 0 0 0 0
 171000000 0.14691096 0.981381845 0.00150555133 0.00104164683 0 0 0 0
 171125000 0.148088709 0.981190485 0.00149546283 0.00103658683 0 0 0 0
 171250000 0.149282779 0.981036192 0.00144544233 0.001043245 0 0 0 0
 171375000 0.150271691 0.980838304 0.00142743133 0.0010017035 0 0 0 0
 171500000 0.151468067 0.980562656 0.00143835833 0.0009988415 0 0 0 0
 171625000 0.152562376 0.98040592 0.00140789367 0.000993907167 0 0 0 0
 171750000 0.153692525 0.98027664 0.0013653185 0.000967197833 0 0 0 0
 171875000 0.15470944 0.98008848 0.001340355 0.000966915667 0 0 0 0
 172000000 0.155782627 0.979921675 0.00132876983 0.000949810833 0 0 0 0
 172125000 0.156748037 0.979835083 0.00132033983 0.000961414333 0 0 0 0
 172250000 0.157837285 0.979755829 0.00131200483 0.000931175667 0 0 0 0
 172375000 0.158727096 0.979571392 0.0012873055 0.000924928167 0 0 0 0
 172500000 0.159741336 0.979467947 0.001272085 0.000914293333 0 0 0 0
 172625000 0.160641173 0.979291019 0.00124850833 0.000914808667 0 0 0 0
 172750000 0.161685136 0.979304277 0.00122943933 0.0009023675 0 0 0 0
 172875000 0.162764003 0.979118923 0.0012234925 0.0009049155 0 0 0 0
 173000000 0.163808624 0.979003659 0.00121553 0.000896011167 0 0 0 0
 173125000 0.164921792 0.978913515 0.00118375917 0.000871195833 0 0 0 0
 173250000 0.166020979 0.978686837 0.00118244683 0.000873969333 0 0 0 0
 173375000 0.167043256 0.978509813 0.001167876 0.0008595595 0 0 0 0
 173500000 0.168091597 0.978334539 0.00113777867 0.000839687833 0 0 0 0
 173625000 0.16928488 0.978109771 0.00111592533 0.000848569167 0 0 0 0
 173750000 0.170274443 0.977837355 0.0010753865 0.00081094 0 0 0 0
 173875000 0.171407464 0.977663275 0.00105890983 0.000816925 0 0 0 0
 174000000 0.172470837 0.977454048 0.00103740283 0.000798683167 0 0 0 0
 174125000 0.173603683 0.97726608 0.00104368817 0.0007903025 0 0 0 0
 174250000 0.174802203 0.977078933 0.001013848 0.000802765 0 0 0 0
 174375000 0.175963275 0.976892501 0.00102721783 0.000738148167 0 0 0 0
 174500000 0.177252829 0.976726816 0.00100257483 0.0007622435 0 0 0 0
 174625000 0.178659099 0.976673429 0.000973074833 0.000714922167 0 0 0 0
 174750000 0.180037688 0.976581195 0.000982524 0.000696197333 0 0 0 0
 174875000 0.181412259 0.976484949 0.000950961833 0.0006677135 0 0 0 0
 175000000 0.182806083 0.976332288 0.000954448833 0.000669781667 0 0 0 0
 175125000 0.184014656 0.976217952 0.000949575333 0.000671117667 0 0 0 0
 175250000 0.185212405 0.976003829 0.000944101 0.000626726667 0 0 0 0
 175375000 0.186213821 0.975806432 0.000925161167 0.000665166167 0 0 0 0
 175500000 0.187430952 0.975638283 0.000903514833 0.000634373167 0 0 0 0
 175625000 0.188421144 0.97531856 0.000893225833 0.000638551667 0 0 0 0
 175750000 0.189412072 0.97505856 0.000885323667 0.000645367333 0 0 0 0
 175875000 0.190366792 0.974828448 0.0008687925 0.000619111167 0 0 0 0
 176000000 0.191446784 0.974616853 0.000847429 0.000615203667 0 0 0 0
 176125000 0.192503403 0.97436304 0.000845144333 0.0006013265 0 0 0 0
 176250000 0.193577963 0.974112235 0.000857847333 0.000602640167 0 0 0 0
 176375000 0.194500923 0.973902411 0.0008270785 0.000594964333 0 0 0 0
 176500000 0.195553571 0.973610336 0.000789479667 0.000585484333 0 0 0 0
 176625000 0.196574963 0.973410347 0.000786382 0.000593217 0 0 0 0
 176750000 0.197598925 0.973152363 0.000760391667 0.0006043825 0 0 0 0
 176875000 0.198598328 0.97300256 0.000751231667 0.000564211167 0 0 0 0
 177000000 0.199632544 0.972696971 0.000756078 0.000560965833 0 0 0 0
 177125000 0.200655885 0.972519157 0.0007346335 0.000563088 0 0 0 0
 177250000 0.2016084 0.972249771 0.000749949333 0.000549165 0 0 0 0
 177375000 0.202550605 0.972025099 0.000723543167 0.0005578995 0 0 0 0
 177500000 0.203629992 0.971793067 0.0006881035 0.000547529333 0 0 0 0
 177625000 0.204525411 0.971634645 0.000694903667 0.0005362605 0 0 0 0
 177750000 0.205526683 0.971429835 0.0006832345 0.000514851667 0 0 0 0
 177875000 0.206354139 0.971216469 0.000680373833 0.000495256333 0 0 0 0
 178000000 0.207499456 0.971063147 0.000657714167 0.00050896 0 0 0 0
 178125000 0.208438907 0.97077952 0.000681296667 0.0004811925 0 0 0 0
 178250000 0.209305933 0.970487584 0.0006521815 0.000480830667 0 0 0 0
 178375000 0.210231507 0.970215339 0.000616372 0.000473450167 0 0 0 0
 178500000 0.21126884 0.970148715 0.000645241333 0.000464259333 0 0 0 0
 178625000 0.212220421 0.969947349 0.000635516333 0.000461455667 0 0 0 0
 178750000 0.213232443 0.969677493 0.000616499333 0.000468012833 0 0 0 0
 178875000 0.214148509 0.969463328 0.000619686 0.000451672 0 0 0 0
 179000000 0.215114624 0.96919888 0.000597193 0.000439575167 0 0 0 0
 179125000 0.216064979 0.968857995 0.0005860625 0.000455272167 0 0 0 0
 179250000 0.217125987 0.968760256 0.000574680167 0.000431302 0 0 0 0
 179375000 0.218149133 0.968393269 0.000589351 0.000449123167 0 0 0 0
 179500000 0.219138672 0.968308011 0.000568495833 0.000418917667 0 0 0 0
 179625000 0.220018552 0.967994539 0.000549015667 0.000438909833 0 0 0 0
 179750000 0.221020496 0.967722613 0.000533226 0.000428781667 0 0 0 0
 179875000 0.221859312 0.967571221 0.000474698333 0.0004147325 0 0 0 0
 180000000 0.22292844 0.967358869 0.000493870333 0.000428694333 0 0 0 0
 180125000 0.223787405 0.966958539 0.000486414 0.000381649667 0 0 0 0
 180250000 0.224947459 0.966683573 0.000501930333 0.00040628 0 0 0 0
 180375000 0.225916829 0.966546101 0.000505800667 0.000389013833 0 0 0 0
 180500000 0.226806035 0.966317493 0.0004813705 0.000376639667 0 0 0 0
 180625000 0.227695469 0.966030421 0.000471319167 0.000371867667 0 0 0 0
 180750000 0.228618933 0.965817664 0.000465700667 0.000412971 0 0 0 0
 180875000 0.229527584 0.965707723 0.000451513333 0.0003939795 0 0 0 0
 181000000 0.230447096 0.965465408 0.000388764 0.000405556 0 0 0 0
 181125000 0.231368053 0.965275083 0.000392284 0.000419441667 0 0 0 0
 181250000 0.232511069 0.965084277 0.0003845635 0.0004010445 0 0 0 0
 181375000 0.233356443 0.964845877 0.0003983875 0.0003929265 0 0 0 0
 181500000 0.234283 0.964606688 0.000402407333 0.000397224333 0 0 0 0
 181625000 0.235192253 0.964256992 0.000396007667 0.000352811167 0 0 0 0
 181750000 0.236153661 0.964046197 0.000399138 0.0003744115 0 0 0 0
 181875000 0.237021451 0.96376352 0.000424472833 0.0003676055 0 0 0 0
 182000000 0.237929723 0.963627883 0.000386476 0.000344089167 0 0 0 0
 182125000 0.238943541 0.963375083 0.0003939595 0.0003376735 0 0 0 0
 182250000 0.239673427 0.963103211 0.000384713667 0.000334914 0 0 0 0
 182375000 0.240653872 0.962892395 0.000367408167 0.000321222167 0 0 0 0
 182500000 0.241603861 0.962671925 0.000382581 0.0003019725 0 0 0 0
 182625000 0.242547387 0.962229781 0.000347702667 0.000308066 0 0 0 0
 182750000 0.243504936 0.962048533 0.0003545545 0.000308851333 0 0 0 0
 182875000 0.244280501 0.961931787 0.000343694667 0.000287676333 0 0 0 0
 183000000 0.245236568 0.96176304 0.000350161667 0.000299631667 0 0 0 0
 183125000 0.246016421 0.961375243 0.000364710667 0.000269570833 0 0 0 0
 183250000 0.246980307 0.961077675 0.000350350833 0.000283011833 0 0 0 0
 183375000 0.247858819 0.960970197 0.000382410333 0.000272194667 0 0 0 0
 183500000 0.248718216 0.960616768 0.000356604 0.000267798667 0 0 0 0
 183625000 0.249534979 0.960382613 0.000334613333 0.000260085167 0 0 0 0
 183750000 0.250407792 0.960176811 0.000314224 0.000256562167 0 0 0 0
 183875000 0.251276797 0.959981333 0.000338309333 0.0002605885 0 0 0 0
 184000000 0.252194163 0.959806816 0.000310235 0.000265785833 0 0 0 0
 184125000 0.253076157 0.959486432 0.000311906667 0.0002354535 0 0 0 0
 184250000 0.253975835 0.959204331 0.000312543667 0.000236693333 0 0 0 0
 184375000 0.254860568 0.959101525 0.000306598167 0.0002306395 0 0 0 0
 184500000 0.255687973 0.958849547 0.000291340667 0.000210635333 0 0 0 0
 184625000 0.256554395 0.958676117 0.000290078833 0.000221849167 0 0 0 0
 184750000 0.257396835 0.958433589 0.000295254833 0.0002054805 0 0 0 0
 184875000 0.258355528 0.958238709 0.0003039795 0.000231682 0 0 0 0
 185000000 0.259301837 0.957914037 0.000317605333 0.000196461 0 0 0 0
 185125000 0.26006248 0.957697888 0.0002912015 0.000200613 0 0 0 0
 185250000 0.260896024 0.95739856 0.000246162833 0.000175102 0 0 0 0
 185375000 0.2617886 0.957254411 0.0002901465 0.000195910833 0 0 0 0
 185500000 0.262696568 0.956933024 0.000272471167 0.0002029875 0 0 0 0
 185625000 0.263650949 0.956749899 0.0002535815 0.000181240667 0 0 0 0
 185750000 0.264526899 0.956498261 0.0002582045 0.0001906 0 0 0 0
 185875000 0.265314267 0.956206453 0.000240174333 0.000159237667 0 0 0 0
 186000000 0.266263475 0.955951584 0.0002312845 0.00017625 0 0 0 0
 186125000 0.267073421 0.955719285 0.000232886667 0.000156088 0 0 0 0
 186250000 0.268033469 0.955512128 0.000256018 0.000170322 0 0 0 0
 186375000 0.268839045 0.955309621 0.000237065333 0.000176895 0 0 0 0
 186500000 0.269835611 0.955022219 0.000211434833 0.000145344167 0 0 0 0
 186625000 0.270445872 0.95471584 0.000220331667 0.000188372 0 0 0 0
 186750000 0.271445765 0.954412352 0.000234954667 0.000150120167 0 0 0 0
 186875000 0.272233397 0.954152245 0.000226571167 0.000168681 0 0 0 0
 187000000 0.273045621 0.953939861 0.000249641 0.000142411333 0 0 0 0
 187125000 0.274050283 0.953732299 0.000224785167 0.000155724833 0 0 0 0
 187250000 0.274835744 0.953460811 0.000229405167 0.000174698833 0 0 0 0
 187375000 0.275655872 0.953216469 0.000252872 0.000132841167 0 0 0 0
 187500000 0.276577024 0.95293072 0.000218740833 0.0001182555 0 0 0 0
 187625000 0.277398133 0.95276736 0.000216636333 0.000106129 0 0 0 0
 187750000 0.278241227 0.952502677 0.000200108833 0.000130785833 0 0 0 0
 187875000 0.279111957 0.952284501 0.000184162 0.0001143255 0 0 0 0
 188000000 0.279957227 0.952075712 0.000203134167 0.000137980167 0 0 0 0
 188125000 0.280745125 0.95179744 0.000206298333 0.000124628 0 0 0 0
 188250000 0.281590613 0.951467147 0.0002185635 0.000122451667 0 0 0 0
 188375000 0.282379376 0.951229685 0.000159649167 0.000110320333 0 0 0 0
 188500000 0.283105813 0.950564427 0.0001728035 0.0001277555 0 0 0 0
 188625000 0.284149029 0.950696117 0.000196028167 0.000102138333 0 0 0 0
 188750000 0.284933035 0.950432363 0.0001795145 0.000119787667 0 0 0 0
 188875000 0.285728763 0.950233269 0.000179260333 0.0001046695 0 0 0 0
 189000000 0.286634443 0.949973227 0.000182990833 0.000120757 0 0 0 0
 189125000 0.287477403 0.949732107 0.000165128833 0.000102595167 0 0 0 0
 189250000 0.288250459 0.949446848 0.000163562833 0.000119601833 0 0 0 0
 189375000 0.289079413 0.949231509 0.0001464135 0.000112814 0 0 0 0
 189500000 0.290028795 0.949009696 0.000154942667 0.000112913 0 0 0 0
 189625000 0.29074272 0.948660619 0.000194616 0.000111896333 0 0 0 0
 189750000 0.291624443 0.948386069 0.000170594333 0.000104401 0 0 0 0
 189875000 0.292456779 0.948200789 0.000162272167 9.08941667e-05 0 0 0 0
 190000000 0.293238325 0.947870485 0.000152588333 9.9982e-05 0 0 0 0
 190125000 0.294043691 0.947644085 0.000143477667 8.43296667e-05 0 0 0 0
 190250000 0.294836347 0.947445803 0.000151493833 8.68501667e-05 0 0 0 0
 190375000 0.295626373 0.947172331 0.000143038167 7.61968333e-05 0 0 0 0
 190500000 0.296473349 0.946950443 0.000136318833 9.41071667e-05 0 0 0 0
 190625000 0.29738776 0.946535509 0.000149223333 7.92423333e-05 0 0 0 0
 190750000 0.298178464 0.946271573 0.000162321167 0.000101604833 0 0 0 0
 190875000 0.298923355 0.946050613 0.000158075667 7.92571667e-05 0 0 0 0
 191000000 0.29969416 0.94580704 0.000142975667 6.61723333e-05 0 0 0 0
 191125000 0.300533205 0.945639605 0.000164114667 9.11233333e-05 0 0 0 0
 191250000 0.301305264 0.945332704 0.000156763333 6.81141667e-05 0 0 0 0
 191375000 0.302020512 0.945082912 0.000159398833 0.000105297 0 0 0 0
 191500000 0.302951189 0.944784651 0.000141131 8.56655e-05 0 0 0 0
 191625000 0.303689179 0.944553205 0.000148102667 7.74331667e-05 0 0 0 0
 191750000 0.304486741 0.944210336 0.000141120833 4.15111667e-05 0 0 0 0
 191875000 0.305234112 0.943999413 0.0001530915 8.8944e-05 0 0 0 0
 192000000 0.30605 0.943752352 0.000127989833 7.58898333e-05 0 0 0 0
 192125000 0.306951003 0.943529141 0.000136058667 7.22671667e-05 0 0 0 0
 192250000 0.307654384 0.943270731 0.000153863167 6.3703e-05 0 0 0 0
 192375000 0.308371824 0.942905579 0.000156914667 4.99868333e-05 0 0 0 0
 192500000 0.309382059 0.942478176 0.000142924833 3.28488333e-05 0 0 0 0
 192625000 0.310079803 0.942339424 0.0001245805 3.6985e-05 0 0 0 0
 192750000 0.310966917 0.942201941 0.000149089833 3.86528333e-05 0 0 0 0
 192875000 0.311717621 0.94197872 0.000143763333 2.31373333e-05 0 0 0 0
 193000000 0.312595904 0.941568149 0.000134018833 5.06543333e-05 0 0 0 0
 193125000 0.313164165 0.941368533 0.0001381555 4.2327e-05 0 0 0 0
 193250000 0.314063328 0.941106965 0.0001490665 5.4836e-05 0 0 0 0
 193375000 0.314805189 0.940810261 0.000154987 5.27835e-05 0 0 0 0
 193500000 0.315592976 0.940577877 0.0001580625 5.68205e-05 0 0 0 0
 193625000 0.316464064 0.940287147 0.0001147445 5.745e-05 0 0 0 0
 193750000 0.317115685 0.939972811 0.000105883333 3.80603333e-05 0 0 0 0
 193875000 0.317937973 0.939709163 0.0001474265 5.34776667e-05 0 0 0 0
 194000000 0.318723525 0.939454944 0.000118292 5.86626667e-05 0 0 0 0
 194125000 0.319458373 0.93917248 0.000108770167 3.35713333e-05 0 0 0 0
 194250000 0.320296784 0.938856075 0.000111442667 2.52031667e-05 0 0 0 0
 194375000 0.321111317 0.938556981 0.000132687833 3.31695e-05 0 0 0 0
 194500000 0.321828485 0.938400683 0.000140316833 3.92946667e-05 0 0 0 0
 194625000 0.322547968 0.938093931 9.6519e-05 4.82306667e-05 0 0 0 0
 194750000 0.323343141 0.937875541 0.000116964667 3.02908333e-05 0 0 0 0
 194875000 0.324116256 0.937525728 0.0001077995 4.47761667e-05 0 0 0 0
 195000000 0.324830576 0.936755861 0.000114605167 4.519e-05 0 0 0 0
 195125000 0.325612763 0.936982443 0.000121976333 2.8986e-05 0 0 0 0
 195250000 0.326375963 0.936660021 0.000107041167 4.70546667e-05 0 0 0 0
 195375000 0.327043883 0.936439221 0.000125318833 4.29825e-05 0 0 0 0
 195500000 0.327863755 0.936179211 0.000101695667 4.76115e-05 0 0 0 0
 195625000 0.328724976 0.935868981 0.000102351333 2.91338333e-05 0 0 0 0
 195750000 0.329451579 0.935636384 0.000102961167 5.0935e-05 0 0 0 0
 195875000 0.330284144 0.935429952 6.75203333e-05 3.2717e-05 0 0 0 0
 196000000 0.330932107 0.935175008 9.25481667e-05 3.8198e-05 0 0 0 0
 196125000 0.331703349 0.934886859 9.17013333e-05 2.82593333e-05 0 0 0 0
 196250000 0.33248232 0.934543179 9.06471667e-05 2.46133333e-05 0 0 0 0
 196375000 0.333230715 0.934467957 0.000102878167 4.03038333e-05 0 0 0 0
 196500000 0.334036811 0.933980117 8.66615e-05 3.3244e-05 0 0 0 0
 196625000 0.334730133 0.933745333 6.87283333e-05 4.62405e-05 0 0 0 0
 196750000 0.335467941 0.933433707 8.87875e-05 3.98225e-05 0 0 0 0
 196875000 0.336224539 0.933134901 0.000100227333 2.121e-05 0 0 0 0
 197000000 0.336935957 0.932848341 0.000107066 3.12543333e-05 0 0 0 0
 197125000 0.337721872 0.932589643 6.15131667e-05 2.27341667e-05 0 0 0 0
 197250000 0.338455397 0.932289003 8.41285e-05 1.6319e-05 0 0 0 0
 197375000 0.339225008 0.932046411 0.000117524 1.2125e-05 0 0 0 0
 197500000 0.339899563 0.931722091 8.03851667e-05 3.80815e-05 0 0 0 0
 197625000 0.3406228 0.931490645 0.000107961667 2.10523333e-05 0 0 0 0
 197750000 0.341383909 0.931254155 7.48425e-05 1.98726667e-05 0 0 0 0
 197875000 0.3420164 0.930861728 8.6946e-05 2.87758333e-05 0 0 0 0
 198000000 0.342886885 0.930626677 5.45513333e-05 1.53766667e-06 0 0 0 0
 198125000 0.343565861 0.930359765 7.40936667e-05 1.2354e-05 0 0 0 0
 198250000 0.344284235 0.930038688 7.90943333e-05 4.04216667e-06 0 0 0 0
 198375000 0.345069637 0.929891829 9.1743e-05 2.68293333e-05 0 0 0 0
 198500000 0.345757216 0.929542635 9.97975e-05 1.90428333e-05 0 0 0 0
 198625000 0.346575525 0.929378837 0.000107975 -2.37666667e-06 0 0 0 0
 198750000 0.347165296 0.929052651 6.80621667e-05 1.87483333e-05 0 0 0 0
 198875000 0.347936533 0.928794805 8.80463333e-05 -1.2155e-06 0 0 0 0
 199000000 0.348736091 0.928422848 8.22901667e-05 1.39245e-05 0 0 0 0
 199125000 0.349373605 0.928128821 8.05391667e-05 9.00916667e-06 0 0 0 0
 199250000 0.350134277 0.927910016 8.4505e-05 -2.38066667e-06 0 0 0 0
 199375000 0.350816325 0.927693461 7.34725e-05 2.3609e-05 0 0 0 0
 199500000 0.351673317 0.927221184 7.26266667e-05 8.24883333e-06 0 0 0 0
 199625000 0.352203413 0.926991456 8.66391667e-05 1.31298333e-05 0 0 0 0
 199750000 0.353107765 0.926723723 4.78145e-05 1.24025e-05 0 0 0 0
 199875000 0.353746715 0.926447435 6.3049e-05 1.12231667e-05 0 0 0 0
 200000000 0.354394037 0.926166464 6.63188333e-05 -1.90136667e-05 0 0 0 0
